User:   siva@s92n12.grendel.cscaa.dk
Date:   Mon Mar  2 12:55:35 2020
Arch:   x86_64
Pid:    343447
Python: 3.6.3
gpaw:   /home/siva/gpaw-1.5.1/gpaw
_gpaw:  /home/siva/gpaw-1.5.1/build/bin.linux-x86_64-3.6/gpaw-python
ase:    /home/siva/env1.5/lib/python3.6/site-packages/ase (version 3.17.0)
numpy:  /home/siva/env1.5/lib/python3.6/site-packages/numpy (version 1.16.0)
scipy:  /home/siva/env1.5/lib/python3.6/site-packages/scipy (version 1.2.0)
units:  Angstrom and eV
cores:  16
Extra parameters: {'blacs': True}

Input parameters:
  basis: dzp
  kpts: [2 2 1]
  mode: {ecut: 500.0,
         gammacentered: False,
         name: pw}
  xc: PBE

System changes: positions, numbers, cell, pbc, initial_charges, initial_magmoms

Initialize ...

O-setup:
  name: Oxygen
  id: 32ecd46bf208036f09c70b0ec9a88b78
  Z: 8
  valence: 6
  core: 2
  charge: 0.0
  file: /home/wido/sw/gpaw/basis/gpaw-setups-0.9.20000/O.PBE.gz
  cutoffs: 0.67(comp), 1.17(filt), 0.83(core), lmax=2
  valence states:
                energy  radius
    2s(2.00)   -23.961   0.688
    2p(4.00)    -9.029   0.598
    *s           3.251   0.688
    *p          18.182   0.598
    *d           0.000   0.619

  LCAO basis set for O:
    Name: dzp
    File: /home/wido/sw/gpaw/basis/gpaw-setups-0.9.20000/O.dzp.basis.gz
    Number of radial functions: 5
    Number of spherical harmonics: 13
      l=0, rc=4.3438 Bohr: 2s-sz confined orbital
      l=1, rc=5.3906 Bohr: 2p-sz confined orbital
      l=0, rc=2.2969 Bohr: 2s-dz split-valence wave
      l=1, rc=2.8906 Bohr: 2p-dz split-valence wave
      l=2, rc=5.3906 Bohr: d-type Gaussian polarization

Ti-setup:
  name: Titanium
  id: d282db07e62ae71292040bf25b25ccdd
  Z: 22
  valence: 12
  core: 10
  charge: 0.0
  file: /home/wido/sw/gpaw/basis/gpaw-setups-0.9.20000/Ti.PBE.gz
  cutoffs: 1.22(comp), 2.23(filt), 1.02(core), lmax=2
  valence states:
                energy  radius
    3s(2.00)   -62.623   1.270
    4s(2.00)    -4.466   1.270
    3p(6.00)   -38.862   1.058
    4p(0.00)    -1.466   1.058
    3d(2.00)    -4.258   1.058
    *d          22.953   1.058

  LCAO basis set for Ti:
    Name: dzp
    File: /home/wido/sw/gpaw/basis/gpaw-setups-0.9.20000/Ti.dzp.basis.gz
    Number of radial functions: 11
    Number of spherical harmonics: 29
      l=0, rc=3.4375 Bohr: 3s-sz confined orbital
      l=0, rc=9.9062 Bohr: 4s-sz confined orbital
      l=1, rc=3.8906 Bohr: 3p-sz confined orbital
      l=1, rc=13.1094 Bohr: 4p-sz confined orbital
      l=2, rc=6.6250 Bohr: 3d-sz confined orbital
      l=0, rc=2.1406 Bohr: 3s-dz split-valence wave
      l=0, rc=6.0156 Bohr: 4s-dz split-valence wave
      l=1, rc=2.3125 Bohr: 3p-dz split-valence wave
      l=1, rc=8.1094 Bohr: 4p-dz split-valence wave
      l=2, rc=3.8594 Bohr: 3d-dz split-valence wave
      l=1, rc=9.9062 Bohr: p-type Gaussian polarization

V-setup:
  name: Vanadium
  id: a8354638d66c808f8c867a10b63fd727
  Z: 23
  valence: 13
  core: 10
  charge: 0.0
  file: /home/wido/sw/gpaw/basis/gpaw-setups-0.9.20000/V.PBE.gz
  cutoffs: 1.19(comp), 2.14(filt), 0.96(core), lmax=2
  valence states:
                energy  radius
    3s(2.00)   -70.222   1.254
    4s(2.00)    -4.702   1.254
    3p(6.00)   -44.043   1.281
    4p(0.00)    -1.444   1.281
    3d(3.00)    -5.164   1.169
    *d          22.047   1.169

  LCAO basis set for V:
    Name: dzp
    File: /home/wido/sw/gpaw/basis/gpaw-setups-0.9.20000/V.dzp.basis.gz
    Number of radial functions: 11
    Number of spherical harmonics: 29
      l=0, rc=3.2656 Bohr: 3s-sz confined orbital
      l=0, rc=9.5312 Bohr: 4s-sz confined orbital
      l=1, rc=3.6719 Bohr: 3p-sz confined orbital
      l=1, rc=12.8750 Bohr: 4p-sz confined orbital
      l=2, rc=6.0938 Bohr: 3d-sz confined orbital
      l=0, rc=2.0625 Bohr: 3s-dz split-valence wave
      l=0, rc=5.7656 Bohr: 4s-dz split-valence wave
      l=1, rc=2.4062 Bohr: 3p-dz split-valence wave
      l=1, rc=7.8906 Bohr: 4p-dz split-valence wave
      l=2, rc=3.6562 Bohr: 3d-dz split-valence wave
      l=1, rc=9.5312 Bohr: p-type Gaussian polarization

H-setup:
  name: Hydrogen
  id: d65de229564ff8ea4db303e23b6d1ecf
  Z: 1
  valence: 1
  core: 0
  charge: 0.0
  file: /home/wido/sw/gpaw/basis/gpaw-setups-0.9.20000/H.PBE.gz
  cutoffs: 0.48(comp), 0.85(filt), 0.53(core), lmax=2
  valence states:
                energy  radius
    1s(1.00)    -6.494   0.476
    *s          20.717   0.476
    *p           0.000   0.476

  LCAO basis set for H:
    Name: dzp
    File: /home/wido/sw/gpaw/basis/gpaw-setups-0.9.20000/H.dzp.basis.gz
    Number of radial functions: 3
    Number of spherical harmonics: 5
      l=0, rc=6.4219 Bohr: 1s-sz confined orbital
      l=0, rc=3.6094 Bohr: 1s-dz split-valence wave
      l=1, rc=6.4219 Bohr: p-type Gaussian polarization

Reference energy: -935653.237240

Spin-paired calculation

Occupation numbers:
  Fermi-Dirac: width=0.1000 eV

Convergence criteria:
  Maximum total energy change: 0.0005 eV / electron
  Maximum integral of absolute density change: 0.0001 electrons
  Maximum integral of absolute eigenstate change: 4e-08 eV^2
  Maximum number of iterations: 333

Symmetries present (total): 1

  ( 1  0  0)
  ( 0  1  0)
  ( 0  0  1)

4 k-points: 2 x 2 x 1 Monkhorst-Pack grid
2 k-points in the irreducible part of the Brillouin zone
       k-points in crystal coordinates                weights
   0:     0.25000000   -0.25000000    0.00000000          2/4
   1:     0.25000000    0.25000000    0.00000000          2/4

Wave functions: Plane wave expansion
  Cutoff energy: 500.000 eV
  Number of coefficients (min, max): 94343, 94343
  Pulay-stress correction: 0.000000 eV/Ang^3 (de/decut=0.000000)
  Using FFTW library
  ScaLapack parameters: grid=1x1, blocksize=None
  Wavefunction extrapolation:
    Improved wavefunction reuse through dual PAW basis

Eigensolver
   Davidson(niter=2, smin=None, normalize=True)

Densities:
  Coarse grid: 54*80*125 grid
  Fine grid: 108*160*250 grid
  Total Charge: 0.000000

Density mixing:
  Method: separate
  Backend: pulay
  Linear mixing parameter: 0.05
  Mixing with 5 old densities
  Damping of long wave oscillations: 50

Hamiltonian:
  XC and Coulomb potentials evaluated on a 108*160*250 grid
  Using the PBE Exchange-Correlation functional

XC parameters: PBE with 2 nearest neighbor stencil

Total number of cores used: 16
Parallelization over k-points: 2
Domain decomposition: 1 x 2 x 4

Number of atoms: 105
Number of atomic orbitals: 1893
Number of bands in calculation: 500
Bands to converge: occupied states only
Number of valence electrons: 826

... initialized

Initializing position-dependent things.

Density initialized from atomic densities
Creating initial wave functions:
  500 bands from LCAO basis set

 |        |                    O   |
 |        O    H  O         O      |
 |        |   Oi      O  H  OV     |
 |      O |   O V  O      Oi     Ti|
 |        | TO     Oi     O   O    |
 |   O    |      O     OTi    TiO  |
 |        OTO     O         O      |
 |        Oi  O TiO  OTi O   Ti    |
 |  O  O  |O   Ti     Ti   OTiO  O |
 |      Tii OO OO    OO   O        |
 |      OO|       OTii    Tii      |
 |   OTi  | Tii     O   OO     O   |
 |    O   |O     OTi     Oi        |
 |  Ti    TO   O  O    O     O     |
 |  O    O|     Ti    Ti           |
 |       Ti         O      O       |
 |        |  O                     |

Positions:
   0 O      9.974517    2.862499    7.395923    ( 0.0000,  0.0000,  0.0000)
   1 O      4.751576    0.970856    7.433844    ( 0.0000,  0.0000,  0.0000)
   2 Ti     2.973752    0.965511    8.331948    ( 0.0000,  0.0000,  0.0000)
   3 Ti     8.189404    2.803522    8.288172    ( 0.0000,  0.0000,  0.0000)
   4 Ti     0.613369    2.836809    8.994488    ( 0.0000,  0.0000,  0.0000)
   5 Ti     5.856682    0.938662    8.958328    ( 0.0000,  0.0000,  0.0000)
   6 O      1.063899    0.953977    8.954538    ( 0.0000,  0.0000,  0.0000)
   7 O      6.332739    2.842687    8.933688    ( 0.0000,  0.0000,  0.0000)
   8 O      9.254147    2.761528    9.821154    ( 0.0000,  0.0000,  0.0000)
   9 O      4.054529    0.983467    9.850791    ( 0.0000,  0.0000,  0.0000)
  10 O      7.750782    0.923741    8.323928    ( 0.0000,  0.0000,  0.0000)
  11 O      2.518424    2.887861    8.350100    ( 0.0000,  0.0000,  0.0000)
  12 O      1.092125    2.889953   11.034028    ( 0.0000,  0.0000,  0.0000)
  13 O      6.267596    0.961638   10.990229    ( 0.0000,  0.0000,  0.0000)
  14 Ti     4.405045    0.958723   11.964861    ( 0.0000,  0.0000,  0.0000)
  15 Ti     9.578030    2.827708   11.972631    ( 0.0000,  0.0000,  0.0000)
  16 Ti     2.017050    2.855324   12.556724    ( 0.0000,  0.0000,  0.0000)
  17 Ti     7.203902    0.939632   12.510229    ( 0.0000,  0.0000,  0.0000)
  18 O      2.551413    0.959618   12.759471    ( 0.0000,  0.0000,  0.0000)
  19 O      7.734802    2.844509   12.802438    ( 0.0000,  0.0000,  0.0000)
  20 O      0.368697    2.852199   13.409892    ( 0.0000,  0.0000,  0.0000)
  21 O      5.573617    0.952938   13.382263    ( 0.0000,  0.0000,  0.0000)
  22 O      9.179299    0.943850   11.982475    ( 0.0000,  0.0000,  0.0000)
  23 O      3.985051    2.897415   12.007947    ( 0.0000,  0.0000,  0.0000)
  24 O      9.990889    6.696232    7.341894    ( 0.0000,  0.0000,  0.0000)
  25 O      4.511960    4.787917    8.184082    ( 0.0000,  0.0000,  0.0000)
  26 Ti     2.724858    4.779771    7.960807    ( 0.0000,  0.0000,  0.0000)
  27 Ti     8.145479    6.707698    8.192011    ( 0.0000,  0.0000,  0.0000)
  28 Ti     0.630398    6.695439    9.077253    ( 0.0000,  0.0000,  0.0000)
  29 Ti     6.062248    4.766294    9.148169    ( 0.0000,  0.0000,  0.0000)
  30 O      1.023957    4.767147    8.931551    ( 0.0000,  0.0000,  0.0000)
  31 O      6.358432    6.708779    8.938070    ( 0.0000,  0.0000,  0.0000)
  32 O      9.235162    6.764411    9.751167    ( 0.0000,  0.0000,  0.0000)
  33 O      7.850578    4.773562    8.386917    ( 0.0000,  0.0000,  0.0000)
  34 O      2.498268    6.663844    8.333080    ( 0.0000,  0.0000,  0.0000)
  35 O      0.998194    6.556366   11.110401    ( 0.0000,  0.0000,  0.0000)
  36 O      5.792539    4.759975   10.935232    ( 0.0000,  0.0000,  0.0000)
  37 Ti     4.472828    4.745426   12.270841    ( 0.0000,  0.0000,  0.0000)
  38 Ti     9.445396    6.660188   11.716908    ( 0.0000,  0.0000,  0.0000)
  39 Ti     2.112427    6.627521   12.619916    ( 0.0000,  0.0000,  0.0000)
  40 Ti     7.490663    4.769151   13.132903    ( 0.0000,  0.0000,  0.0000)
  41 O      2.518271    4.741339   12.955585    ( 0.0000,  0.0000,  0.0000)
  42 O      7.665225    6.667639   12.589831    ( 0.0000,  0.0000,  0.0000)
  43 O      0.114947    6.730047   13.480656    ( 0.0000,  0.0000,  0.0000)
  44 O      5.666336    4.793749   13.596222    ( 0.0000,  0.0000,  0.0000)
  45 O      9.094996    4.757329   11.868554    ( 0.0000,  0.0000,  0.0000)
  46 O      3.864855    6.572592   11.861983    ( 0.0000,  0.0000,  0.0000)
  47 O      9.941219   10.526766    7.424162    ( 0.0000,  0.0000,  0.0000)
  48 O      4.793812    8.598035    7.389240    ( 0.0000,  0.0000,  0.0000)
  49 Ti     2.924043    8.598447    8.231525    ( 0.0000,  0.0000,  0.0000)
[...]
 |   OTi  | Tii     O   O      O   |
 |    O   |O  O  OTi     Oi        |
 |  Ti    TO      O   O      O     |
 |  O     |    Ti     Ti           |
 |      OTi         O     O        |
 |        |  O                     |

[...]

Density initialized from wave functions
 |        |                    O   |
 |        O   H  O          O      |
 |        |   Oi      O  H  OV     |
 |     O  |   O V  O      Oi     Ti|
 |        | TO     Oi     O   O    |
 |    O   | O    O     OTi    TiO  |
 |        Ti      O    O    O      |
 |        OTi O Ti   O  O   Tii    |
 |  O  O  |O  TiTi   Tii  O  O   O |
 |      Tii    O   O OO   Ti       |
 |      OO| OO     Tii     Oi      |
 |   OTi  | Tii     O   O      O   |
 |    O   |O  O  OTi     Oi        |
 |  Ti    TO      O   O      O     |
 |  O     |    Ti     Ti           |
 |      OTi         O     O        |
 |        |  O                     |

[...]

Density initialized from wave functions
 |        |                    O   |
 |        O   H  O          O      |
 |        |   Oi      O  H  OV     |
 |     O  |   O V  O      Oi     Ti|
 |        | TO     Oi     O   O    |
 |    O   | O    O     OTi    TiO  |
 |        Ti      O    OO   O      |
 |        OTi O Ti   O      Tii    |
 |  O  O  |O  TiTi   Tii  O  O   O |
 |      Tii    O   O OO   Ti       |
 |      OO| OO     Tii     Oi      |
 |   OTi  | Tii     O   O      O   |
 |    O   |O  O  OTi     Oi        |
 |  Ti    TO      O   O      O     |
 |  O     |    Ti     Ti           |
 |      OTi         O     O        |
 |        |  O                     |

[...]

Density initialized from wave functions
 |        |                    O   |
 |        O   H  O          O      |
 |        |   Oi      O  H  OV     |
 |     O  |   O V  O      Oi     Ti|
 |        | TO     Oi     O   O    |
 |    O   | O    O     OTi    TiO  |
 |        Ti      O    OO   O      |
 |        OTi O Ti   O      Tii    |
 |  O  O  |O  TiTi   Tii  O  O   O |
 |      Tii O  O   O OO   Ti       |
 |      OO|  O     Tii     Oi      |
 |   OTi  | Tii     O   O      O   |
 |    O   |O  O  OTi     Oi        |
 |  Ti    TO      O   O      O     |
 |  O     |    Ti     Ti           |
 |      OTi         O     O        |
 |        |  O                     |

[...]

Density initialized from wave functions
 |        |                    O   |
 |        O   H  O          O      |
 |        |   Oi      O  H  OV     |
 |     O  |   O V  O      Oi     Ti|
 |        | TO     Oi     O   O    |
 |    O   | O    O     OTi    TiO  |
 |        Ti      O    OO   O      |
 |        OTi   Ti   O      Tii    |
 |  O  O  |O  TiTi   Tii  O  O   O |
 |      Tii    O   O OO   Ti       |
 |      OO| OO     Tii     Oi      |
 |   OTi  | Tii     O   O      O   |
 |    O   |O  O  OTi     Oi        |
 |  Ti    TO      O   O      O     |
 |  O     |    Ti     Ti           |
 |      OTi         O     O        |
 |        |  O                     |

[...]

Density initialized from wave functions
 |        |                    O   |
 |        O   H  O          O      |
 |        |   Oi      O  H  OV     |
 |     O  |   O V  O      Oi     Ti|
 |        | Oi     Oi     O   O    |
 |    O   | O    O     OTi    TiO  |
 |        Ti      O    OO   O      |
 |        OTi   Ti   O      Tii    |
 |  O  O  |O  TiTi   Tii  O  O   O |
 |      Tii    O   O OO   Ti       |
 |      OO| OO     Tii     Oi      |
 |   OTi  | Tii     O   O      O   |
 |    O   |O  O  OTi     Oi        |
 |  Ti    TO      O   O      O     |
 |  O     |    Ti     Ti           |
 |      OTi         O     O        |
 |        |  O                     |

[...]

Density initialized from wave functions
 |        |                    O   |
 |        O   H  O          O      |
 |        |   Oi      O  H  OV     |
 |     O  |   O V  O      Oi     Ti|
 |        | Oi     Oi     O   O    |
 |    O   | O    O     OTi    Ti   |
 |        Ti     OO    O    O      |
 |        OTi   Ti   O  O   Tii    |
 |  O  O  |O  TiTi   Tii  O  O   O |
 |      Tii    O   O OO   Ti       |
 |      OO| OO     Tii     Oi      |
 |   OTi  | Tii     O   O      O   |
 |    O   |O  O  OTi     Oi        |
 |  Ti    TO      O   O      O     |
 |  O     |    Ti     Ti           |
 |      OTi         O     O        |
 |        |  O                     |

[...]

Density initialized from wave functions
 |        |                    O   |
 |        O   H  O          O      |
 |        |   Oi      O  H  OV     |
 |     O  |   O V  O      Oi     Ti|
 |        | Oi     Oi     O   O    |
 |    O   | O    O     OTi    Ti   |
 |        Ti     OO    O    O      |
 |        OTi   Ti   O  O   Tii    |
 |  O  O  |O  TiTi   Tii  O  O   O |
 |      Tii    O   O OO   Ti       |
 |      OO| OO     Tii     Oi      |
 |   OTi  | Tii     O   O      O   |
 |    O   |O  O  OTi     Oi        |
 |  Ti    TO      O   O      O     |
 |  O     |    Ti     Ti           |
 |      OTi         O     O        |
 |        |  O                     |

[...]

Density initialized from wave functions
 |        |                    O   |
 |        O   H  O          O      |
 |        |   Oi      O  H  OV     |
 |     O  |   O V  O      Oi     Ti|
 |        | Oi     Oi     O   O    |
 |    O   | O    O     OTi    Ti   |
 |        Ti     OO    O    O      |
 |        OTi   Ti   O  O   Tii    |
 |  O  O  |O  TiTi   Tii  O  O   O |
 |      Tii    O   O OO   Ti       |
 |      O | OO     Tii     Oi      |
 |   OTi  | Tii     O   O      O   |
 |    O   |O  O  OTi     Oi        |
 |  Ti    TO      O   O      O     |
 |  O     |    Ti     Ti           |
 |      OTi         O     O        |
 |        |  O                     |

[...]

System changes: positions

Initializing position-dependent things.

Density initialized from wave functions
 |        |                    O   |
 |        O   H  O          O      |
 |        |   Oi      O  H  OV     |
 |     O  |   O V  O      Oi     Ti|
 |        | Oi     Oi     O   O    |
 |    O   | O    O     OTi    Ti   |
 |        Ti     OO    O    O      |
 |        OTi   Ti   O  O   Tii    |
 |  O  O  |O  TiTi   Tii  O  O   O |
 |      Tii    O   O OO   Ti       |
 |      O | OO     Tii     Oi      |
 |   OTi  | Tii     O   O      O   |
 |    O   |O  O  OTi     Oi        |
 |  Ti    TO      O   O      O     |
 |  O     |    Ti     Ti           |
 |      OTi         O     O        |
 |        |  O                     |

Positions:
   0 O      9.725324    2.812534    7.529737    ( 0.0000,  0.0000,  0.0000)
   1 O      4.556484    0.910294    7.502516    ( 0.0000,  0.0000,  0.0000)
   2 Ti     2.953615    0.905327    8.400941    ( 0.0000,  0.0000,  0.0000)
   3 Ti     8.135286    2.805157    8.464077    ( 0.0000,  0.0000,  0.0000)
   4 Ti     0.563093    2.745546    8.937036    ( 0.0000,  0.0000,  0.0000)
   5 Ti     5.747809    0.907861    8.916619    ( 0.0000,  0.0000,  0.0000)
   6 O      0.986814    0.914166    8.984532    ( 0.0000,  0.0000,  0.0000)
   7 O      6.145680    2.860672    8.853946    ( 0.0000,  0.0000,  0.0000)
   8 O      9.104889    2.810134    9.969420    ( 0.0000,  0.0000,  0.0000)
   9 O      3.901657    0.952017    9.924943    ( 0.0000,  0.0000,  0.0000)
  10 O      7.619681    0.909940    8.237784    ( 0.0000,  0.0000,  0.0000)
  11 O      2.332567    2.825469    7.935588    ( 0.0000,  0.0000,  0.0000)
  12 O      1.066768    2.840278   10.993076    ( 0.0000,  0.0000,  0.0000)
  13 O      6.217660    0.954232   10.958301    ( 0.0000,  0.0000,  0.0000)
  14 Ti     4.403195    0.907722   12.004130    ( 0.0000,  0.0000,  0.0000)
  15 Ti     9.583305    2.814728   12.037733    ( 0.0000,  0.0000,  0.0000)
  16 Ti     2.031510    2.807435   12.503779    ( 0.0000,  0.0000,  0.0000)
  17 Ti     7.201175    0.928431   12.468611    ( 0.0000,  0.0000,  0.0000)
  18 O      2.548986    0.927311   12.727883    ( 0.0000,  0.0000,  0.0000)
  19 O      7.715278    2.831271   12.770116    ( 0.0000,  0.0000,  0.0000)
  20 O      0.427924    2.797967   13.422898    ( 0.0000,  0.0000,  0.0000)
  21 O      5.596938    0.937989   13.388004    ( 0.0000,  0.0000,  0.0000)
  22 O      9.179813    0.924655   12.009753    ( 0.0000,  0.0000,  0.0000)
  23 O      4.011184    2.881611   11.981383    ( 0.0000,  0.0000,  0.0000)
  24 O      9.775241    6.651761    7.569868    ( 0.0000,  0.0000,  0.0000)
  25 O      4.108751    4.752364    9.062164    ( 0.0000,  0.0000,  0.0000)
  26 Ti     2.593711    4.752707    8.139949    ( 0.0000,  0.0000,  0.0000)
  27 Ti     8.167139    6.667192    8.424734    ( 0.0000,  0.0000,  0.0000)
  28 Ti     0.564497    6.730958    9.066212    ( 0.0000,  0.0000,  0.0000)
  29 Ti     5.950336    4.749282    9.246422    ( 0.0000,  0.0000,  0.0000)
  30 O      1.016237    4.745393    9.061933    ( 0.0000,  0.0000,  0.0000)
  31 O      6.154883    6.627991    8.858145    ( 0.0000,  0.0000,  0.0000)
  32 O      9.078228    6.685282    9.967404    ( 0.0000,  0.0000,  0.0000)
  33 O      7.672686    4.742413    8.271807    ( 0.0000,  0.0000,  0.0000)
  34 O      2.333292    6.664976    7.916216    ( 0.0000,  0.0000,  0.0000)
  35 O      1.011864    6.606808   11.120467    ( 0.0000,  0.0000,  0.0000)
  36 O      6.125564    4.730663   11.117959    ( 0.0000,  0.0000,  0.0000)
  37 Ti     4.402819    4.719005   12.361948    ( 0.0000,  0.0000,  0.0000)
  38 Ti     9.670727    6.657004   12.019788    ( 0.0000,  0.0000,  0.0000)
  39 Ti     2.070605    6.633953   12.899558    ( 0.0000,  0.0000,  0.0000)
  40 Ti     7.262577    4.759071   12.604352    ( 0.0000,  0.0000,  0.0000)
  41 O      2.544133    4.693963   12.965798    ( 0.0000,  0.0000,  0.0000)
  42 O      7.657773    6.627946   12.807287    ( 0.0000,  0.0000,  0.0000)
  43 O      0.363133    6.675778   13.543153    ( 0.0000,  0.0000,  0.0000)
  44 O      5.664406    4.735573   13.629758    ( 0.0000,  0.0000,  0.0000)
  45 O      9.161797    4.747572   12.036143    ( 0.0000,  0.0000,  0.0000)
  46 O      3.980900    6.536400   11.863639    ( 0.0000,  0.0000,  0.0000)
  47 O      9.759256   10.482740    7.496309    ( 0.0000,  0.0000,  0.0000)
  48 O      4.590646    8.581311    7.446382    ( 0.0000,  0.0000,  0.0000)
  49 Ti     2.947632    8.553429    8.277975    ( 0.0000,  0.0000,  0.0000)
  50 Ti     8.128386   10.464112    8.371283    ( 0.0000,  0.0000,  0.0000)
  51 Ti     0.610768   10.491385    8.906545    ( 0.0000,  0.0000,  0.0000)
  52 Ti     5.767509    8.559339    8.878822    ( 0.0000,  0.0000,  0.0000)
  53 O      1.016713    8.559824    9.017371    ( 0.0000,  0.0000,  0.0000)
  54 O      6.154914   10.441584    8.998313    ( 0.0000,  0.0000,  0.0000)
  55 O      9.112588   10.373224    9.872211    ( 0.0000,  0.0000,  0.0000)
  56 O      3.898795    8.466065    9.816937    ( 0.0000,  0.0000,  0.0000)
  57 O      7.608557    8.563996    8.118391    ( 0.0000,  0.0000,  0.0000)
  58 O      2.449020   10.455268    8.124964    ( 0.0000,  0.0000,  0.0000)
  59 O      1.017614   10.501304   11.080500    ( 0.0000,  0.0000,  0.0000)
[...]
  90 O      7.706567   14.316442   12.751803    ( 0.0000,  0.0000,  0.0000)
  91 O      0.431389   14.284313   13.382663    ( 0.0000,  0.0000,  0.0000)
  92 O      5.536291   12.306789   13.500626    ( 0.0000,  0.0000,  0.0000)
  93 O      9.165597   12.390427   11.864291    ( 0.0000,  0.0000,  0.0000)
  94 O      4.024016   14.297253   12.023962    ( 0.0000,  0.0000,  0.0000)
  95 V      3.947098    8.501456   14.738293    ( 0.0000,  0.0000,  0.0000)
  96 O      3.041553    7.029258   14.585325    ( 0.0000,  0.0000,  0.0000)
  97 O      2.878239   10.070767   14.583284    ( 0.0000,  0.0000,  0.0000)
  98 O      4.617208    8.572728   16.176268    ( 0.0000,  0.0000,  0.0000)
  99 H      2.906123   10.732869   15.299691    ( 0.0000,  0.0000,  0.0000)
 100 V      9.117539   10.557268   14.759034    ( 0.0000,  0.0000,  0.0000)
 101 O      8.206324   12.011153   14.511673    ( 0.0000,  0.0000,  0.0000)
 102 O      8.019027    9.013629   14.614868    ( 0.0000,  0.0000,  0.0000)
 103 O      9.763945   10.547203   16.208177    ( 0.0000,  0.0000,  0.0000)
 104 H      7.973029    8.392227   15.365787    ( 0.0000,  0.0000,  0.0000)

Unit cell:
           periodic     x           y           z      points  spacing
  1. axis:    yes   10.341746    0.000000    0.000000    54     0.1915
  2. axis:    yes   -0.000000   15.289380    0.000000    80     0.1911
  3. axis:    yes    0.000000    0.000000   23.497201   125     0.1880

  Lengths:  10.341746  15.289380  23.497201
  Angles:   90.000000  90.000000  90.000000

Effective grid spacing dv^(1/3) = 0.1902

                     log10-error:    total        iterations:
           time      wfs    density  energy       fermi  poisson
iter:   1  04:10:46  -4.91   +inf  -863.963405    3
iter:   2  04:11:14  -5.79  -4.21  -863.963626    2
iter:   3  04:11:43  -6.33  -4.26  -863.963668    2
iter:   4  04:12:12  -6.22  -4.36  -863.963704    3
iter:   5  04:12:40  -6.96  -4.51  -863.963685    2
iter:   6  04:13:09  -7.15  -4.63  -863.963637    2
iter:   7  04:13:37  -7.66  -4.84  -863.963670    2

Converged after 7 iterations.

Dipole moment: (-28.379385, -9.141078, -0.872139) |e|*Ang

Energy contributions relative to reference atoms: (reference = -935653.237240)

Kinetic:       +648.609181
Potential:     -813.569812
External:        +0.000000
XC:            -704.941986
Entropy (-ST):   -0.595758
Local:           +6.236827
Free energy:   -864.261550
Extrapolated:  -863.963670

Fermi level: -1.14532

Showing all kpts
 Kpt  Band  Eigenvalues  Occupancy
  0   411     -3.84447    1.00000
  0   412     -1.06925    0.31851
  0   413     -1.00902    0.20375
  0   414     -0.98410    0.16629

  1   411     -3.84448    1.00000
  1   412     -1.07380    0.32845
  1   413     -1.00360    0.19510
  1   414     -0.97919    0.15959

Forces in eV/Ang:
  0 O    -0.00254    0.00211   -0.00014
  1 O     0.00066   -0.00115   -0.00234
  2 Ti   -0.00303   -0.00205   -0.00001
  3 Ti    0.00436    0.00150   -0.00077
  4 Ti    0.00059   -0.00170   -0.00225
  5 Ti    0.00212   -0.00336    0.00187
  6 O     0.00137   -0.00306    0.00130
  7 O    -0.00179   -0.00438    0.00382
  8 O    -0.00401    0.00040    0.00426
  9 O    -0.00232   -0.00417    0.00130
 10 O    -0.00182   -0.00512   -0.00165
 11 O    -0.00216   -0.00148    0.00072
 12 O    -0.00084   -0.00132   -0.00302
 13 O     0.00159   -0.00022   -0.00235
 14 Ti   -0.00360    0.00378   -0.00151
 15 Ti   -0.00453   -0.00346    0.00123
 16 Ti   -0.00077    0.00115   -0.00245
 17 Ti    0.00019    0.00275   -0.00334
 18 O    -0.00192   -0.00319    0.00285
 19 O    -0.00143   -0.00414    0.00208
 20 O    -0.00048    0.00134    0.00082
 21 O    -0.00140    0.00186   -0.00063
 22 O    -0.00194   -0.00510   -0.00166
 23 O    -0.00107   -0.00168    0.00252
 24 O    -0.00072   -0.00014   -0.00276
 25 O     0.00088    0.00118   -0.00643
 26 Ti    0.00099   -0.00152    0.00011
 27 Ti    0.00304    0.00070    0.00453
 28 Ti    0.00429   -0.00195    0.00105
 29 Ti    0.00214   -0.00258   -0.00212
 30 O    -0.00129   -0.00281   -0.00086
 31 O     0.00196   -0.00126   -0.00109
 32 O     0.00013   -0.00028    0.00026
 33 O    -0.00520    0.00127   -0.00185
 34 O     0.00068   -0.00047    0.00075
 35 O    -0.00043   -0.00052   -0.00179
 36 O     0.00073   -0.00570    0.00330
 37 Ti    0.00022   -0.00221   -0.00467
 38 Ti   -0.00162    0.00007   -0.00118
 39 Ti   -0.00072   -0.00187    0.00004
 40 Ti   -0.00172   -0.00412    0.00065
 41 O    -0.00370   -0.00116    0.00098
 42 O    -0.00194    0.00004   -0.00029
 43 O    -0.00186   -0.00049    0.00131
 44 O     0.00182   -0.00298    0.00245
 45 O     0.00086   -0.00265   -0.00060
 46 O    -0.00165   -0.00227    0.00054
 47 O     0.00039    0.00014   -0.00098
 48 O     0.00224   -0.00481    0.00099
 49 Ti   -0.00075    0.00232   -0.00108
 50 Ti    0.00075   -0.00255   -0.00101
 51 Ti   -0.00091   -0.00113   -0.00270
 52 Ti    0.00075   -0.00022    0.00393
 53 O    -0.00079   -0.00284    0.00017
 54 O    -0.00137   -0.00176   -0.00042
 55 O    -0.00149   -0.00218    0.00051
 56 O    -0.00128    0.00224   -0.00004
 57 O     0.00178   -0.00025   -0.00187
 58 O     0.00061   -0.00354   -0.00389
 59 O    -0.00277   -0.00277    0.00083
[...]
 90 O    -0.00271   -0.00406    0.00164
 91 O    -0.00222   -0.00176   -0.00289
 92 O    -0.00071    0.00071   -0.00097
 93 O    -0.00198   -0.00299    0.00145
 94 O    -0.00124   -0.00477   -0.00099
 95 V     0.00080    0.00028    0.00700
 96 O     0.00095   -0.00134   -0.00384
 97 O    -0.00170   -0.00173    0.00183
 98 O    -0.00477   -0.00181   -0.00592
 99 H    -0.00090   -0.00154   -0.00120
100 V    -0.00106   -0.00189   -0.00068
101 O    -0.00041    0.00239   -0.00162
102 O    -0.00018    0.00026   -0.00233
103 O    -0.00249    0.00117   -0.00719
104 H    -0.00127   -0.00172    0.00276