User:   siva@s92n11.grendel.cscaa.dk
Date:   Tue Feb 25 18:08:20 2020
Arch:   x86_64
Pid:    100012
Python: 3.6.3
gpaw:   /home/siva/gpaw-1.5.1/gpaw
_gpaw:  /home/siva/gpaw-1.5.1/build/bin.linux-x86_64-3.6/gpaw-python
ase:    /home/siva/env1.5/lib/python3.6/site-packages/ase (version 3.17.0)
numpy:  /home/siva/env1.5/lib/python3.6/site-packages/numpy (version 1.16.0)
scipy:  /home/siva/env1.5/lib/python3.6/site-packages/scipy (version 1.2.0)
units:  Angstrom and eV
cores:  36
Extra parameters: {'blacs': True}

Input parameters:
  basis: dzp
  kpts: [2 2 1]
  mode: {ecut: 500.0,
         gammacentered: False,
         name: pw}
  xc: PBE

System changes: positions, numbers, cell, pbc, initial_charges, initial_magmoms

Initialize ...

O-setup:
  name: Oxygen
  id: 32ecd46bf208036f09c70b0ec9a88b78
  Z: 8
  valence: 6
  core: 2
  charge: 0.0
  file: /home/wido/sw/gpaw/basis/gpaw-setups-0.9.20000/O.PBE.gz
  cutoffs: 0.67(comp), 1.17(filt), 0.83(core), lmax=2
  valence states:
                energy  radius
    2s(2.00)   -23.961   0.688
    2p(4.00)    -9.029   0.598
    *s           3.251   0.688
    *p          18.182   0.598
    *d           0.000   0.619

  LCAO basis set for O:
    Name: dzp
    File: /home/wido/sw/gpaw/basis/gpaw-setups-0.9.20000/O.dzp.basis.gz
    Number of radial functions: 5
    Number of spherical harmonics: 13
      l=0, rc=4.3438 Bohr: 2s-sz confined orbital
      l=1, rc=5.3906 Bohr: 2p-sz confined orbital
      l=0, rc=2.2969 Bohr: 2s-dz split-valence wave
      l=1, rc=2.8906 Bohr: 2p-dz split-valence wave
      l=2, rc=5.3906 Bohr: d-type Gaussian polarization

Ti-setup:
  name: Titanium
  id: d282db07e62ae71292040bf25b25ccdd
  Z: 22
  valence: 12
  core: 10
  charge: 0.0
  file: /home/wido/sw/gpaw/basis/gpaw-setups-0.9.20000/Ti.PBE.gz
  cutoffs: 1.22(comp), 2.23(filt), 1.02(core), lmax=2
  valence states:
                energy  radius
    3s(2.00)   -62.623   1.270
    4s(2.00)    -4.466   1.270
    3p(6.00)   -38.862   1.058
    4p(0.00)    -1.466   1.058
    3d(2.00)    -4.258   1.058
    *d          22.953   1.058

  LCAO basis set for Ti:
    Name: dzp
    File: /home/wido/sw/gpaw/basis/gpaw-setups-0.9.20000/Ti.dzp.basis.gz
    Number of radial functions: 11
    Number of spherical harmonics: 29
      l=0, rc=3.4375 Bohr: 3s-sz confined orbital
      l=0, rc=9.9062 Bohr: 4s-sz confined orbital
      l=1, rc=3.8906 Bohr: 3p-sz confined orbital
      l=1, rc=13.1094 Bohr: 4p-sz confined orbital
      l=2, rc=6.6250 Bohr: 3d-sz confined orbital
      l=0, rc=2.1406 Bohr: 3s-dz split-valence wave
      l=0, rc=6.0156 Bohr: 4s-dz split-valence wave
      l=1, rc=2.3125 Bohr: 3p-dz split-valence wave
      l=1, rc=8.1094 Bohr: 4p-dz split-valence wave
      l=2, rc=3.8594 Bohr: 3d-dz split-valence wave
      l=1, rc=9.9062 Bohr: p-type Gaussian polarization

V-setup:
  name: Vanadium
  id: a8354638d66c808f8c867a10b63fd727
  Z: 23
  valence: 13
  core: 10
  charge: 0.0
  file: /home/wido/sw/gpaw/basis/gpaw-setups-0.9.20000/V.PBE.gz
  cutoffs: 1.19(comp), 2.14(filt), 0.96(core), lmax=2
  valence states:
                energy  radius
    3s(2.00)   -70.222   1.254
    4s(2.00)    -4.702   1.254
    3p(6.00)   -44.043   1.281
    4p(0.00)    -1.444   1.281
    3d(3.00)    -5.164   1.169
    *d          22.047   1.169

  LCAO basis set for V:
    Name: dzp
    File: /home/wido/sw/gpaw/basis/gpaw-setups-0.9.20000/V.dzp.basis.gz
    Number of radial functions: 11
    Number of spherical harmonics: 29
      l=0, rc=3.2656 Bohr: 3s-sz confined orbital
      l=0, rc=9.5312 Bohr: 4s-sz confined orbital
      l=1, rc=3.6719 Bohr: 3p-sz confined orbital
      l=1, rc=12.8750 Bohr: 4p-sz confined orbital
      l=2, rc=6.0938 Bohr: 3d-sz confined orbital
      l=0, rc=2.0625 Bohr: 3s-dz split-valence wave
      l=0, rc=5.7656 Bohr: 4s-dz split-valence wave
      l=1, rc=2.4062 Bohr: 3p-dz split-valence wave
      l=1, rc=7.8906 Bohr: 4p-dz split-valence wave
      l=2, rc=3.6562 Bohr: 3d-dz split-valence wave
      l=1, rc=9.5312 Bohr: p-type Gaussian polarization

H-setup:
  name: Hydrogen
  id: d65de229564ff8ea4db303e23b6d1ecf
  Z: 1
  valence: 1
  core: 0
  charge: 0.0
  file: /home/wido/sw/gpaw/basis/gpaw-setups-0.9.20000/H.PBE.gz
  cutoffs: 0.48(comp), 0.85(filt), 0.53(core), lmax=2
  valence states:
                energy  radius
    1s(1.00)    -6.494   0.476
    *s          20.717   0.476
    *p           0.000   0.476

  LCAO basis set for H:
    Name: dzp
    File: /home/wido/sw/gpaw/basis/gpaw-setups-0.9.20000/H.dzp.basis.gz
    Number of radial functions: 3
    Number of spherical harmonics: 5
      l=0, rc=6.4219 Bohr: 1s-sz confined orbital
      l=0, rc=3.6094 Bohr: 1s-dz split-valence wave
      l=1, rc=6.4219 Bohr: p-type Gaussian polarization

Reference energy: -719248.338470

Spin-paired calculation

Occupation numbers:
  Fermi-Dirac: width=0.1000 eV

Convergence criteria:
  Maximum total energy change: 0.0005 eV / electron
  Maximum integral of absolute density change: 0.0001 electrons
  Maximum integral of absolute eigenstate change: 4e-08 eV^2
  Maximum number of iterations: 333

Symmetries present (total): 1

  ( 1  0  0)
  ( 0  1  0)
  ( 0  0  1)

4 k-points: 2 x 2 x 1 Monkhorst-Pack grid
2 k-points in the irreducible part of the Brillouin zone
       k-points in crystal coordinates                weights
   0:     0.25000000   -0.25000000    0.00000000          2/4
   1:     0.25000000    0.25000000    0.00000000          2/4

Wave functions: Plane wave expansion
  Cutoff energy: 500.000 eV
  Number of coefficients (min, max): 70729, 70729
  Pulay-stress correction: 0.000000 eV/Ang^3 (de/decut=0.000000)
  Using FFTW library
  ScaLapack parameters: grid=1x1, blocksize=None
  Wavefunction extrapolation:
    Improved wavefunction reuse through dual PAW basis

Eigensolver
   Davidson(niter=2, smin=None, normalize=True)

Densities:
  Coarse grid: 54*60*125 grid
  Fine grid: 108*120*250 grid
  Total Charge: 0.000000

Density mixing:
  Method: separate
  Backend: pulay
  Linear mixing parameter: 0.05
  Mixing with 5 old densities
  Damping of long wave oscillations: 50

Hamiltonian:
  XC and Coulomb potentials evaluated on a 108*120*250 grid
  Using the PBE Exchange-Correlation functional

XC parameters: PBE with 2 nearest neighbor stencil

Total number of cores used: 36
Parallelization over k-points: 2
Domain decomposition: 2 x 3 x 3

Number of atoms: 82
Number of atomic orbitals: 1466
Number of bands in calculation: 388
Bands to converge: occupied states only
Number of valence electrons: 640

... initialized

Initializing position-dependent things.

Density initialized from atomic densities
Creating initial wave functions:
  388 bands from LCAO basis set

 |      |                   O    |
 |     O|  H  O          O       |
 |      |  OTi    O   H  OV      |
 |   O  |  O V  O      Oi     Ti |
 |      |Oi     Ti     O    O    |
 |      |     O O   OTi    TiO   |
 |O    OTO               O       |
 |     Ti    OOi  O O O   Ti     |
 |     OO   O     TiTi  OTi    O |
 |  O Ti|  TiO     O   O         |
 |    O |  O    OTi     Oi       |
 |  Ti  | Oi     O    O     O    |
 | O    O      Ti    Ti          |
 |      Ti          O     O      |
 |      |   O                    |

Positions:
   0 O      9.889324    1.911172    9.551683    ( 0.0000,  0.0000,  0.0000)
   1 O      4.718451    0.000000    9.551683    ( 0.0000,  0.0000,  0.0000)
   2 Ti     2.825504    0.000000   10.304640    ( 0.0000,  0.0000,  0.0000)
   3 Ti     7.996377    1.911172   10.304640    ( 0.0000,  0.0000,  0.0000)
   4 Ti     0.593255    1.911172   11.192561    ( 0.0000,  0.0000,  0.0000)
   5 Ti     5.764128    0.000000   11.192561    ( 0.0000,  0.0000,  0.0000)
   6 O      0.932557    0.000000   11.057597    ( 0.0000,  0.0000,  0.0000)
   7 O      6.103430    1.911172   11.057597    ( 0.0000,  0.0000,  0.0000)
   8 O      9.042055    1.911172   11.945518    ( 0.0000,  0.0000,  0.0000)
   9 O      3.871181    0.000000   11.945518    ( 0.0000,  0.0000,  0.0000)
  10 O      7.657075    0.000000   10.439604    ( 0.0000,  0.0000,  0.0000)
  11 O      2.486202    1.911172   10.439604    ( 0.0000,  0.0000,  0.0000)
  12 O      0.960329    1.911172   13.103366    ( 0.0000,  0.0000,  0.0000)
  13 O      6.131202    0.000000   13.103366    ( 0.0000,  0.0000,  0.0000)
  14 Ti     4.238256    0.000000   13.856323    ( 0.0000,  0.0000,  0.0000)
  15 Ti     9.409129    1.911172   13.856323    ( 0.0000,  0.0000,  0.0000)
  16 Ti     2.006007    1.911172   14.744244    ( 0.0000,  0.0000,  0.0000)
  17 Ti     7.176880    0.000000   14.744244    ( 0.0000,  0.0000,  0.0000)
  18 O      2.345309    0.000000   14.609280    ( 0.0000,  0.0000,  0.0000)
  19 O      7.516182    1.911172   14.609280    ( 0.0000,  0.0000,  0.0000)
  20 O      0.113060    1.911172   15.497201    ( 0.0000,  0.0000,  0.0000)
  21 O      5.283933    0.000000   15.497201    ( 0.0000,  0.0000,  0.0000)
  22 O      9.069827    0.000000   13.991287    ( 0.0000,  0.0000,  0.0000)
  23 O      3.898954    1.911172   13.991287    ( 0.0000,  0.0000,  0.0000)
  24 O      9.889324    5.733517    9.551683    ( 0.0000,  0.0000,  0.0000)
  25 O      4.718451    3.822345    9.551683    ( 0.0000,  0.0000,  0.0000)
  26 Ti     2.825504    3.822345   10.304640    ( 0.0000,  0.0000,  0.0000)
  27 Ti     7.996377    5.733517   10.304640    ( 0.0000,  0.0000,  0.0000)
  28 Ti     0.593255    5.733517   11.192561    ( 0.0000,  0.0000,  0.0000)
  29 Ti     5.764128    3.822345   11.192561    ( 0.0000,  0.0000,  0.0000)
  30 O      0.932557    3.822345   11.057597    ( 0.0000,  0.0000,  0.0000)
  31 O      6.103430    5.733517   11.057597    ( 0.0000,  0.0000,  0.0000)
  32 O      9.042055    5.733517   11.945518    ( 0.0000,  0.0000,  0.0000)
  33 O      3.871181    3.822345   11.945518    ( 0.0000,  0.0000,  0.0000)
  34 O      7.657075    3.822345   10.439604    ( 0.0000,  0.0000,  0.0000)
  35 O      2.486202    5.733517   10.439604    ( 0.0000,  0.0000,  0.0000)
  36 O      0.960329    5.733517   13.103366    ( 0.0000,  0.0000,  0.0000)
  37 O      6.131202    3.822345   13.103366    ( 0.0000,  0.0000,  0.0000)
  38 Ti     4.238256    3.822345   13.856323    ( 0.0000,  0.0000,  0.0000)
  39 Ti     9.409129    5.733517   13.856323    ( 0.0000,  0.0000,  0.0000)
  40 Ti     2.006007    5.733517   14.744244    ( 0.0000,  0.0000,  0.0000)
  41 Ti     7.176880    3.822345   14.744244    ( 0.0000,  0.0000,  0.0000)
  42 O      2.345309    3.822345   14.609280    ( 0.0000,  0.0000,  0.0000)
  43 O      7.516182    5.733517   14.609280    ( 0.0000,  0.0000,  0.0000)
  44 O      0.113060    5.733517   15.497201    ( 0.0000,  0.0000,  0.0000)
  45 O      5.283933    3.822345   15.497201    ( 0.0000,  0.0000,  0.0000)
  46 O      9.069827    3.822345   13.991287    ( 0.0000,  0.0000,  0.0000)
  47 O      3.898954    5.733517   13.991287    ( 0.0000,  0.0000,  0.0000)
  48 O      9.889324    9.555862    9.551683    ( 0.0000,  0.0000,  0.0000)
  49 O      4.718451    7.644690    9.551683    ( 0.0000,  0.0000,  0.0000)
  50 Ti     2.825504    7.644690   10.304640    ( 0.0000,  0.0000,  0.0000)
[...]

[...]

Density initialized from wave functions
 |      |            O      O    |
 |     O|  H  O          O       |
 |      |  Oi     TO  H  OV      |
 |      |  OV   O      Oi    OTi |
 |      |Oi     Oi     O   O     |
 |      |     O     O      TiO   |
 | O   TiO          OTi  O       |
 |      |    TiO  O   O   Ti     |
 |      O  O      TiTi  OTi    O |
 |  O Ti|   TO     O   O         |
 |    O |  O    OTi     Oi       |
 |  Ti  | Oi     O    O     O    |
 | O    O      Ti    Ti          |
 |      Ti          O     O      |
 |      |   O                    |

[...]

Density initialized from wave functions
 |      |            O      O    |
 |     O|  H  O          O       |
 |      |  Oi     TO  H  OV      |
 |      |  OV   O      Oi    OTi |
 |      |Oi     Oi     O   O     |
 |      |     O     O      TiO   |
 | O   TiO          OTi  O       |
 |      |    TiO  O   O   Ti     |
 |      O  O      TiTi  OTi    O |
 |  O Ti|   TO     O   O         |
 |    O |  O    OTi     Oi       |
 |  Ti  | Oi     O    O     O    |
 | O    O      Ti    Ti          |
 |      Ti          O     O      |
 |      |   O                    |

[...]

Density initialized from wave functions
 |      |            O      O    |
 |     O|  H  O          O       |
 |      |  Oi     TO  H  OV      |
 |      |  OV   O      Oi    OTi |
 |      |Oi     Oi     O   O     |
 |      |     O     OTi    TiO   |
 | O   TiO          O    O       |
 |      |    TiO  O   O   Ti     |
 |      O  O      TiTi  OTi    O |
 |  O Ti|   TO     O   O         |
 |    O |  O    OTi     Oi       |
 |  Ti  | Oi     O    O     O    |
 | O    O      Ti    Ti          |
 |      Ti          O     O      |
 |      |   O                    |

[...]

Density initialized from wave functions
 |      |            O      O    |
 |     O|  H  O          O       |
 |      |  Oi     TO  H  OV      |
 |      |  OV   O      Oi    Oi  |
 |      |Oi     Oi     O   O     |
 |      |     O     OTi    TiO   |
 | O   TiO          O    O       |
 |      |    TiO  O   O   Ti     |
 |      O  O      TiTi  OTi    O |
 |  O Ti|   TO     O   O         |
 |    O |  O    OTi     Oi       |
 |  Ti  | Oi     O    O     O    |
 | O    O      Ti    Ti          |
 |      Ti          O     O      |
 |      |   O                    |

[...]

Density initialized from wave functions
 |      |            O      O    |
 |     O|  H  O          O       |
 |      |  Oi     TO  H  OV      |
 |      |  OV   O      Oi    Oi  |
 |      |Oi     Oi     O   O     |
 |      |    O      OTi    TiO   |
 | O   TiO          O    O       |
 |      |    TiO  O   O   Ti     |
 |      O  O      TiTi  OTi    O |
 |  O Ti|   TO     O   O         |
 |    O |  O    OTi     Oi       |
 |  Ti  | Oi     O    O     O    |
 | O    O      Ti    Ti          |
 |      Ti          O     O      |
 |      |   O                    |

[...]

Density initialized from wave functions
 |      |            O      O    |
 |     O|  H  O          O       |
 |      |  Oi     TO  H  OV      |
 |      |  OV   O      Oi    Oi  |
 |      |Oi     Oi     O   O     |
 |      |    O      O      TiO   |
 | O   TiO          OTi  O       |
 |      |    TiO  O   O   Ti     |
 |      O  O      TiTi  OTi    O |
 |  O Ti|   TO     O   O         |
 |    O |  O    OTi     Oi       |
 |  Ti  | Oi     O    O     O    |
 | O    O      Ti    Ti          |
 |      Ti          O     O      |
 |      |   O                    |

[...]

Density initialized from wave functions
 |      |            O      O    |
 |     O|  H  O          O       |
 |      |  Oi     TO  H  OV      |
 |      |  OV   O      Oi    Oi  |
 |      |Oi     Oi     O   O     |
 |      |    O      O      TiO   |
 | O   TiO          OTi  O       |
 |      |    TiO  O   O   Ti     |
 |      O  O      TiTi  OTi    O |
 |  O Ti|   TO     O   O         |
 |    O |  O    OTi     Oi       |
 |  Ti  | Oi     O    O     O    |
 | O    O      Ti    Ti          |
 |      Ti          O     O      |
 |      |   O                    |

[...]

Density initialized from wave functions
 |      |            O      O    |
 |     O|  H  O          O       |
 |      |  Oi     Oi  H  OV      |
 |      |  OV   O      Oi    Oi  |
 |      |Oi     Oi     O   O     |
 |      |    O      O      TiO   |
 | O   TiO          Oi   O       |
 |      |    TiO  O   O   Ti     |
 |      O  O      TiTi  OTi    O |
 |  O Ti|   TO     O   O         |
 |    O |  O    OTi     Oi       |
 |  Ti  | Oi     O    O     O    |
 | O    O      Ti    Ti          |
 |      Ti          O     O      |
 |      |   O                    |

[...]

Density initialized from wave functions
 |      |            O      O    |
 |     O|  H  O          O       |
 |      |  Oi     TO  H  OV      |
 |      |  OV   O      Oi    Oi  |
 |      |Oi     Oi     O   O     |
 |      |    O      O      TiO   |
 | O   TiO          Oi   O       |
 |      |    TiO  O   O   Ti     |
 |      O  O      TiTi  OTi    O |
 |  O Ti|   TO     O   O         |
 |    O |  O    OTi     Oi       |
 |  Ti  | Oi     O    O     O    |
 | O    O      Ti    Ti          |
 |      Ti          O     O      |
 |      |   O                    |

[...]

Density initialized from wave functions
 |      |            O      O    |
 |     O|  H  O          O       |
 |      |  Oi     Oi  H  OV      |
 |      |  OV   O      Oi    Oi  |
 |      |Oi     Oi     O   O     |
 |      |    O      O      TiO   |
 | O   TiO          Oi   O       |
 |      |    TiO  O   O   Ti     |
 |      O  O      TiTi  OTi    O |
 |  O Ti|   TO     O   O         |
 |    O |  O    OTi     Oi       |
 |  Ti  | Oi     O    O     O    |
 | O    O      Ti    Ti          |
 |      Ti          O     O      |
 |      |   O                    |

[...]

System changes: positions

Initializing position-dependent things.

Density initialized from wave functions
 |      |            O      O    |
 |     O|  H  O          O       |
 |      |  Oi     TO  H  OV      |
 |      |  OV   O      Oi    Oi  |
 |      |Oi     Oi     O   O     |
 |      |    O      O      TiO   |
 | O   TiO          Oi   O       |
 |      |    TiO  O   O   Ti     |
 |      O  O      TiTi  OTi    O |
 |  O Ti|   TO     O   O         |
 |    O |  O    OTi     Oi       |
 |  Ti  | Oi     O    O     O    |
 | O    O      Ti    Ti          |
 |      Ti          O     O      |
 |      |   O                    |

Positions:
   0 O      9.889324    1.911172    9.551683    ( 0.0000,  0.0000,  0.0000)
   1 O      4.718451    0.000000    9.551683    ( 0.0000,  0.0000,  0.0000)
   2 Ti     2.825504    0.000000   10.304640    ( 0.0000,  0.0000,  0.0000)
   3 Ti     7.996377    1.911172   10.304640    ( 0.0000,  0.0000,  0.0000)
   4 Ti     0.593255    1.911172   11.192561    ( 0.0000,  0.0000,  0.0000)
   5 Ti     5.764128    0.000000   11.192561    ( 0.0000,  0.0000,  0.0000)
   6 O      0.932557    0.000000   11.057597    ( 0.0000,  0.0000,  0.0000)
   7 O      6.103430    1.911172   11.057597    ( 0.0000,  0.0000,  0.0000)
   8 O      9.042055    1.911172   11.945518    ( 0.0000,  0.0000,  0.0000)
   9 O      3.871181    0.000000   11.945518    ( 0.0000,  0.0000,  0.0000)
  10 O      7.657075    0.000000   10.439604    ( 0.0000,  0.0000,  0.0000)
  11 O      2.486202    1.911172   10.439604    ( 0.0000,  0.0000,  0.0000)
  12 O      0.884316    1.895038   13.196926    ( 0.0000,  0.0000,  0.0000)
  13 O      6.079804    0.006459   13.140429    ( 0.0000,  0.0000,  0.0000)
  14 Ti     4.165276   -0.051170   14.026317    ( 0.0000,  0.0000,  0.0000)
  15 Ti     9.486524    1.894629   13.965731    ( 0.0000,  0.0000,  0.0000)
  16 Ti     1.872220    1.883263   15.017249    ( 0.0000,  0.0000,  0.0000)
  17 Ti     6.971705    0.016352   14.695646    ( 0.0000,  0.0000,  0.0000)
  18 O      2.352849   -0.035662   14.878795    ( 0.0000,  0.0000,  0.0000)
  19 O      7.448604    1.889810   15.001203    ( 0.0000,  0.0000,  0.0000)
  20 O      0.152849    1.923813   15.564133    ( 0.0000,  0.0000,  0.0000)
  21 O      5.317570   -0.033247   15.489556    ( 0.0000,  0.0000,  0.0000)
  22 O      8.951321    0.033996   14.062771    ( 0.0000,  0.0000,  0.0000)
  23 O      3.790039    1.873194   13.958154    ( 0.0000,  0.0000,  0.0000)
  24 O      9.889324    5.733517    9.551683    ( 0.0000,  0.0000,  0.0000)
  25 O      4.718451    3.822345    9.551683    ( 0.0000,  0.0000,  0.0000)
  26 Ti     2.825504    3.822345   10.304640    ( 0.0000,  0.0000,  0.0000)
  27 Ti     7.996377    5.733517   10.304640    ( 0.0000,  0.0000,  0.0000)
  28 Ti     0.593255    5.733517   11.192561    ( 0.0000,  0.0000,  0.0000)
  29 Ti     5.764128    3.822345   11.192561    ( 0.0000,  0.0000,  0.0000)
  30 O      0.932557    3.822345   11.057597    ( 0.0000,  0.0000,  0.0000)
  31 O      6.103430    5.733517   11.057597    ( 0.0000,  0.0000,  0.0000)
  32 O      9.042055    5.733517   11.945518    ( 0.0000,  0.0000,  0.0000)
  33 O      3.871181    3.822345   11.945518    ( 0.0000,  0.0000,  0.0000)
  34 O      7.657075    3.822345   10.439604    ( 0.0000,  0.0000,  0.0000)
  35 O      2.486202    5.733517   10.439604    ( 0.0000,  0.0000,  0.0000)
  36 O      0.850570    5.792590   13.218368    ( 0.0000,  0.0000,  0.0000)
  37 O      6.022821    3.762645   13.218710    ( 0.0000,  0.0000,  0.0000)
  38 Ti     4.076688    3.695729   13.839573    ( 0.0000,  0.0000,  0.0000)
  39 Ti     9.246265    5.860274   13.840555    ( 0.0000,  0.0000,  0.0000)
  40 Ti     1.952548    5.826385   14.740382    ( 0.0000,  0.0000,  0.0000)
  41 Ti     7.123193    3.728067   14.743097    ( 0.0000,  0.0000,  0.0000)
  42 O      2.323539    3.831419   14.656683    ( 0.0000,  0.0000,  0.0000)
  43 O      7.494207    5.724639   14.657311    ( 0.0000,  0.0000,  0.0000)
  44 O     -0.114097    5.754803   15.593991    ( 0.0000,  0.0000,  0.0000)
  45 O      5.057456    3.805471   15.593605    ( 0.0000,  0.0000,  0.0000)
  46 O      8.857559    3.759259   13.984335    ( 0.0000,  0.0000,  0.0000)
  47 O      3.684435    5.795840   13.977292    ( 0.0000,  0.0000,  0.0000)
  48 O      9.889324    9.555862    9.551683    ( 0.0000,  0.0000,  0.0000)
  49 O      4.718451    7.644690    9.551683    ( 0.0000,  0.0000,  0.0000)
  50 Ti     2.825504    7.644690   10.304640    ( 0.0000,  0.0000,  0.0000)
  51 Ti     7.996377    9.555862   10.304640    ( 0.0000,  0.0000,  0.0000)
  52 Ti     0.593255    9.555862   11.192561    ( 0.0000,  0.0000,  0.0000)
  53 Ti     5.764128    7.644690   11.192561    ( 0.0000,  0.0000,  0.0000)
  54 O      0.932557    7.644690   11.057597    ( 0.0000,  0.0000,  0.0000)
  55 O      6.103430    9.555862   11.057597    ( 0.0000,  0.0000,  0.0000)
  56 O      9.042055    9.555862   11.945518    ( 0.0000,  0.0000,  0.0000)
  57 O      3.871181    7.644690   11.945518    ( 0.0000,  0.0000,  0.0000)
  58 O      7.657075    7.644690   10.439604    ( 0.0000,  0.0000,  0.0000)
  59 O      2.486202    9.555862   10.439604    ( 0.0000,  0.0000,  0.0000)
[...]
  67 O      7.523835    9.591064   14.879075    ( 0.0000,  0.0000,  0.0000)
  68 O      0.147162    9.585938   15.489876    ( 0.0000,  0.0000,  0.0000)
  69 O      5.321370    7.626981   15.562767    ( 0.0000,  0.0000,  0.0000)
  70 O      8.959864    7.682937   13.957542    ( 0.0000,  0.0000,  0.0000)
  71 O      3.780367    9.521629   14.061991    ( 0.0000,  0.0000,  0.0000)
  72 V      3.735794    3.748206   16.842566    ( 0.0000,  0.0000,  0.0000)
  73 O      2.818305    2.275002   16.685549    ( 0.0000,  0.0000,  0.0000)
  74 O      2.667627    5.325483   16.714440    ( 0.0000,  0.0000,  0.0000)
  75 O      4.414910    3.800419   18.275845    ( 0.0000,  0.0000,  0.0000)
  76 H      2.719342    5.992109   17.425502    ( 0.0000,  0.0000,  0.0000)
  77 V      8.906909    5.812391   16.843856    ( 0.0000,  0.0000,  0.0000)
  78 O      7.986843    7.283946   16.685569    ( 0.0000,  0.0000,  0.0000)
  79 O      7.839114    4.234619   16.717842    ( 0.0000,  0.0000,  0.0000)
  80 O      9.587128    5.761271   18.276751    ( 0.0000,  0.0000,  0.0000)
  81 H      7.889916    3.572609   17.433297    ( 0.0000,  0.0000,  0.0000)

Unit cell:
           periodic     x           y           z      points  spacing
  1. axis:    yes   10.341746    0.000000    0.000000    54     0.1915
  2. axis:    yes   -0.000000   11.467000    0.000000    60     0.1911
  3. axis:    yes    0.000000    0.000000   23.497201   125     0.1880

  Lengths:  10.341746  11.467000  23.497201
  Angles:   90.000000  90.000000  90.000000

Effective grid spacing dv^(1/3) = 0.1902

                     log10-error:    total        iterations:
           time      wfs    density  energy       fermi  poisson
iter:   1  20:10:42  -5.40   +inf  -667.113912    2
iter:   2  20:10:50  -6.31  -4.54  -667.113914    1
iter:   3  20:10:58  -6.37  -4.56  -667.113907    2
iter:   4  20:11:06  -7.15  -4.83  -667.113906    1
iter:   5  20:11:14  -7.14  -4.85  -667.113906    1
iter:   6  20:11:22  -7.26  -4.96  -667.113905    1
iter:   7  20:11:30  -7.98  -5.11  -667.113904    1

Converged after 7 iterations.

Dipole moment: (-11.887100, 5.313630, -0.698595) |e|*Ang

Energy contributions relative to reference atoms: (reference = -719248.338470)

Kinetic:       +419.597406
Potential:     -561.435654
External:        +0.000000
XC:            -530.443178
Entropy (-ST):   -0.000364
Local:           +5.167704
Free energy:   -667.114087
Extrapolated:  -667.113904

Fermi level: -2.25450

Showing all kpts
 Kpt  Band  Eigenvalues  Occupancy
  0   318     -3.30999    0.99997
  0   319     -3.30025    0.99997
  0   320     -1.24800    0.00004
  0   321     -1.21274    0.00003

  1   318     -3.30994    0.99997
  1   319     -3.30031    0.99997
  1   320     -1.24795    0.00004
  1   321     -1.21279    0.00003

Forces in eV/Ang:
  0 O    -1.76255    0.03790    1.52811
  1 O    -1.74481    0.02592    1.56052
  2 Ti    4.00306   -0.16619    2.24626
  3 Ti    4.11462   -0.25635    2.19877
  4 Ti   -2.09411   -0.23796   -1.25991
  5 Ti   -2.27097   -0.11387   -2.26063
  6 O     0.90230    0.01140   -0.11409
  7 O     0.84202    0.23581   -0.10029
  8 O    -0.69768   -0.04017   -0.77764
  9 O    -0.49950   -0.13209   -0.51669
 10 O    -0.34765    0.05381   -0.91150
 11 O    -0.27331    0.33758   -0.93102
 12 O    -0.00029   -0.00232   -0.00129
 13 O     0.00210   -0.00088    0.00010
 14 Ti    0.00238    0.00225   -0.00032
 15 Ti    0.00261   -0.00098   -0.00146
 16 Ti   -0.00258   -0.00113   -0.00278
 17 Ti    0.00242    0.00179   -0.00048
 18 O     0.00146    0.00175   -0.00185
 19 O    -0.00205   -0.00109   -0.00123
 20 O    -0.00363    0.00594    0.00055
 21 O     0.00357    0.00187   -0.00257
 22 O     0.00262   -0.00174   -0.00014
 23 O     0.00168   -0.00320   -0.00229
 24 O    -1.78630   -0.00722    1.74699
 25 O    -1.78625    0.00709    1.74759
 26 Ti    3.44991   -0.11326    1.62648
 27 Ti    3.45276    0.11391    1.62868
 28 Ti   -1.51261    0.11283   -1.59219
 29 Ti   -1.50692   -0.11288   -1.59192
 30 O     0.98055    0.25423   -0.04575
 31 O     0.97887   -0.25555   -0.04453
 32 O    -0.74162   -0.11176   -1.05121
 33 O    -0.73721    0.10782   -1.05692
 34 O    -0.41090    0.27251   -0.85891
 35 O    -0.40970   -0.27355   -0.85942
 36 O    -0.00196   -0.00596   -0.00276
 37 O    -0.00201    0.00392    0.00054
 38 Ti   -0.00436    0.00139    0.00117
 39 Ti   -0.00186   -0.00085   -0.00093
 40 Ti   -0.00071   -0.00177   -0.00289
 41 Ti   -0.00105    0.00387   -0.00137
 42 O     0.00046   -0.00279    0.00202
 43 O    -0.00227    0.00096   -0.00391
 44 O     0.00265   -0.00418   -0.00295
 45 O     0.00232   -0.00245   -0.00065
 46 O    -0.00232   -0.00068   -0.00902
 47 O     0.00056    0.00141    0.00087
 48 O    -1.74342   -0.02605    1.56117
 49 O    -1.76516   -0.03778    1.52724
 50 Ti    4.11414    0.25624    2.19655
 51 Ti    4.00032    0.16551    2.24636
 52 Ti   -2.27167    0.11212   -2.26091
 53 Ti   -2.08985    0.24080   -1.25981
 54 O     0.84297   -0.23630   -0.10108
 55 O     0.90315   -0.01113   -0.11815
 56 O    -0.49744    0.13348   -0.51565
 57 O    -0.70108    0.04267   -0.78747
 58 O    -0.27341   -0.33676   -0.93182
 59 O    -0.34795   -0.05352   -0.91104
[...]
 67 O    -0.00022   -0.00293   -0.00404
 68 O     0.00081    0.00338   -0.00418
 69 O     0.00285    0.00255    0.00375
 70 O     0.00166   -0.00077   -0.00320
 71 O     0.00083   -0.00126    0.00094
 72 V     0.00057   -0.00000    0.00111
 73 O    -0.00137    0.00042   -0.00486
 74 O     0.00387   -0.00301    0.00059
 75 O     0.00276   -0.00323    0.00125
 76 H     0.00430   -0.00414    0.00084
 77 V    -0.00184   -0.00278   -0.00495
 78 O     0.00421   -0.00576   -0.00424
 79 O     0.00261   -0.00170   -0.00784
 80 O    -0.00190    0.00260    0.00017
 81 H     0.00222   -0.00245   -0.00491