User:   siva@s81n42.grendel.cscaa.dk
Date:   Wed Feb 26 16:05:15 2020
Arch:   x86_64
Pid:    10330
Python: 3.6.3
gpaw:   /home/siva/gpaw-1.5.1/gpaw
_gpaw:  /home/siva/gpaw-1.5.1/build/bin.linux-x86_64-3.6/gpaw-python
ase:    /home/siva/env1.5/lib/python3.6/site-packages/ase (version 3.17.0)
numpy:  /home/siva/env1.5/lib/python3.6/site-packages/numpy (version 1.16.0)
scipy:  /home/siva/env1.5/lib/python3.6/site-packages/scipy (version 1.2.0)
units:  Angstrom and eV
cores:  24
Extra parameters: {'blacs': True}

Input parameters:
  basis: dzp
  kpts: [2 2 1]
  mode: {ecut: 500.0,
         gammacentered: False,
         name: pw}
  xc: PBE

System changes: positions, numbers, cell, pbc, initial_charges, initial_magmoms

Initialize ...

O-setup:
  name: Oxygen
  id: 32ecd46bf208036f09c70b0ec9a88b78
  Z: 8
  valence: 6
  core: 2
  charge: 0.0
  file: /home/wido/sw/gpaw/basis/gpaw-setups-0.9.20000/O.PBE.gz
  cutoffs: 0.67(comp), 1.17(filt), 0.83(core), lmax=2
  valence states:
                energy  radius
    2s(2.00)   -23.961   0.688
    2p(4.00)    -9.029   0.598
    *s           3.251   0.688
    *p          18.182   0.598
    *d           0.000   0.619

  LCAO basis set for O:
    Name: dzp
    File: /home/wido/sw/gpaw/basis/gpaw-setups-0.9.20000/O.dzp.basis.gz
    Number of radial functions: 5
    Number of spherical harmonics: 13
      l=0, rc=4.3438 Bohr: 2s-sz confined orbital
      l=1, rc=5.3906 Bohr: 2p-sz confined orbital
      l=0, rc=2.2969 Bohr: 2s-dz split-valence wave
      l=1, rc=2.8906 Bohr: 2p-dz split-valence wave
      l=2, rc=5.3906 Bohr: d-type Gaussian polarization

Ti-setup:
  name: Titanium
  id: d282db07e62ae71292040bf25b25ccdd
  Z: 22
  valence: 12
  core: 10
  charge: 0.0
  file: /home/wido/sw/gpaw/basis/gpaw-setups-0.9.20000/Ti.PBE.gz
  cutoffs: 1.22(comp), 2.23(filt), 1.02(core), lmax=2
  valence states:
                energy  radius
    3s(2.00)   -62.623   1.270
    4s(2.00)    -4.466   1.270
    3p(6.00)   -38.862   1.058
    4p(0.00)    -1.466   1.058
    3d(2.00)    -4.258   1.058
    *d          22.953   1.058

  LCAO basis set for Ti:
    Name: dzp
    File: /home/wido/sw/gpaw/basis/gpaw-setups-0.9.20000/Ti.dzp.basis.gz
    Number of radial functions: 11
    Number of spherical harmonics: 29
      l=0, rc=3.4375 Bohr: 3s-sz confined orbital
      l=0, rc=9.9062 Bohr: 4s-sz confined orbital
      l=1, rc=3.8906 Bohr: 3p-sz confined orbital
      l=1, rc=13.1094 Bohr: 4p-sz confined orbital
      l=2, rc=6.6250 Bohr: 3d-sz confined orbital
      l=0, rc=2.1406 Bohr: 3s-dz split-valence wave
      l=0, rc=6.0156 Bohr: 4s-dz split-valence wave
      l=1, rc=2.3125 Bohr: 3p-dz split-valence wave
      l=1, rc=8.1094 Bohr: 4p-dz split-valence wave
      l=2, rc=3.8594 Bohr: 3d-dz split-valence wave
      l=1, rc=9.9062 Bohr: p-type Gaussian polarization

V-setup:
  name: Vanadium
  id: a8354638d66c808f8c867a10b63fd727
  Z: 23
  valence: 13
  core: 10
  charge: 0.0
  file: /home/wido/sw/gpaw/basis/gpaw-setups-0.9.20000/V.PBE.gz
  cutoffs: 1.19(comp), 2.14(filt), 0.96(core), lmax=2
  valence states:
                energy  radius
    3s(2.00)   -70.222   1.254
    4s(2.00)    -4.702   1.254
    3p(6.00)   -44.043   1.281
    4p(0.00)    -1.444   1.281
    3d(3.00)    -5.164   1.169
    *d          22.047   1.169

  LCAO basis set for V:
    Name: dzp
    File: /home/wido/sw/gpaw/basis/gpaw-setups-0.9.20000/V.dzp.basis.gz
    Number of radial functions: 11
    Number of spherical harmonics: 29
      l=0, rc=3.2656 Bohr: 3s-sz confined orbital
      l=0, rc=9.5312 Bohr: 4s-sz confined orbital
      l=1, rc=3.6719 Bohr: 3p-sz confined orbital
      l=1, rc=12.8750 Bohr: 4p-sz confined orbital
      l=2, rc=6.0938 Bohr: 3d-sz confined orbital
      l=0, rc=2.0625 Bohr: 3s-dz split-valence wave
      l=0, rc=5.7656 Bohr: 4s-dz split-valence wave
      l=1, rc=2.4062 Bohr: 3p-dz split-valence wave
      l=1, rc=7.8906 Bohr: 4p-dz split-valence wave
      l=2, rc=3.6562 Bohr: 3d-dz split-valence wave
      l=1, rc=9.5312 Bohr: p-type Gaussian polarization

H-setup:
  name: Hydrogen
  id: d65de229564ff8ea4db303e23b6d1ecf
  Z: 1
  valence: 1
  core: 0
  charge: 0.0
  file: /home/wido/sw/gpaw/basis/gpaw-setups-0.9.20000/H.PBE.gz
  cutoffs: 0.48(comp), 0.85(filt), 0.53(core), lmax=2
  valence states:
                energy  radius
    1s(1.00)    -6.494   0.476
    *s          20.717   0.476
    *p           0.000   0.476

  LCAO basis set for H:
    Name: dzp
    File: /home/wido/sw/gpaw/basis/gpaw-setups-0.9.20000/H.dzp.basis.gz
    Number of radial functions: 3
    Number of spherical harmonics: 5
      l=0, rc=6.4219 Bohr: 1s-sz confined orbital
      l=0, rc=3.6094 Bohr: 1s-dz split-valence wave
      l=1, rc=6.4219 Bohr: p-type Gaussian polarization

Reference energy: -935653.237240

Spin-paired calculation

Occupation numbers:
  Fermi-Dirac: width=0.1000 eV

Convergence criteria:
  Maximum total energy change: 0.0005 eV / electron
  Maximum integral of absolute density change: 0.0001 electrons
  Maximum integral of absolute eigenstate change: 4e-08 eV^2
  Maximum number of iterations: 333

Symmetries present (total): 1

  ( 1  0  0)
  ( 0  1  0)
  ( 0  0  1)

4 k-points: 2 x 2 x 1 Monkhorst-Pack grid
2 k-points in the irreducible part of the Brillouin zone
       k-points in crystal coordinates                weights
   0:     0.25000000   -0.25000000    0.00000000          2/4
   1:     0.25000000    0.25000000    0.00000000          2/4

Wave functions: Plane wave expansion
  Cutoff energy: 500.000 eV
  Number of coefficients (min, max): 94343, 94343
  Pulay-stress correction: 0.000000 eV/Ang^3 (de/decut=0.000000)
  Using FFTW library
  ScaLapack parameters: grid=1x1, blocksize=None
  Wavefunction extrapolation:
    Improved wavefunction reuse through dual PAW basis

Eigensolver
   Davidson(niter=2, smin=None, normalize=True)

Densities:
  Coarse grid: 54*80*125 grid
  Fine grid: 108*160*250 grid
  Total Charge: 0.000000

Density mixing:
  Method: separate
  Backend: pulay
  Linear mixing parameter: 0.05
  Mixing with 5 old densities
  Damping of long wave oscillations: 50

Hamiltonian:
  XC and Coulomb potentials evaluated on a 108*160*250 grid
  Using the PBE Exchange-Correlation functional

XC parameters: PBE with 2 nearest neighbor stencil

Total number of cores used: 24
Parallelization over k-points: 2
Domain decomposition: 2 x 2 x 3

Number of atoms: 105
Number of atomic orbitals: 1893
Number of bands in calculation: 500
Bands to converge: occupied states only
Number of valence electrons: 826

... initialized

Initializing position-dependent things.

Density initialized from atomic densities
Creating initial wave functions:
  500 bands from LCAO basis set

 |        |                    O   |
 |        O    H  O         O      |
 |        |   Oi      O   H O V    |
 |     O  |   O V  O      Oi     Ti|
 |        | TO     Oi     O   O    |
 |    O   |      O     OTi    TiO  |
 |        TiO     O    O    O      |
 |        OTi   TiO  O TiO  Tii    |
 |  O  O  |O  TiTi   Ti    O  O  O |
 |      Tii  O OO   OOO   O        |
 |      OO| O     OTii    Tii      |
 |   O Ti | Tii     O   OO     O   |
 |    O   |O     OOTi    Oi        |
 |  Ti    |Oi  O  O    O     O     |
 |  O    O|     Ti    Ti           |
 |       Ti         O      O       |
 |        |  O                     |

Positions:
   0 O      9.985175    2.817512    7.418325    ( 0.0000,  0.0000,  0.0000)
   1 O      4.783264    0.944026    7.429735    ( 0.0000,  0.0000,  0.0000)
   2 Ti     2.996728    0.947334    8.325345    ( 0.0000,  0.0000,  0.0000)
   3 Ti     8.219380    2.762325    8.290231    ( 0.0000,  0.0000,  0.0000)
   4 Ti     0.657013    2.834279    8.996630    ( 0.0000,  0.0000,  0.0000)
   5 Ti     5.869204    0.907478    8.959613    ( 0.0000,  0.0000,  0.0000)
   6 O      1.103363    0.956808    8.933081    ( 0.0000,  0.0000,  0.0000)
   7 O      6.329588    2.829609    8.956631    ( 0.0000,  0.0000,  0.0000)
   8 O      9.244581    2.827586    9.849813    ( 0.0000,  0.0000,  0.0000)
   9 O      4.076120    0.928629    9.858025    ( 0.0000,  0.0000,  0.0000)
  10 O      7.779315    0.904056    8.349312    ( 0.0000,  0.0000,  0.0000)
  11 O      2.595771    2.888574    8.400027    ( 0.0000,  0.0000,  0.0000)
  12 O      1.092876    2.869829   11.029348    ( 0.0000,  0.0000,  0.0000)
  13 O      6.275716    0.918785   10.977295    ( 0.0000,  0.0000,  0.0000)
  14 Ti     4.408634    0.941457   11.950235    ( 0.0000,  0.0000,  0.0000)
  15 Ti     9.591671    2.839874   11.969214    ( 0.0000,  0.0000,  0.0000)
  16 Ti     2.026182    2.834968   12.550808    ( 0.0000,  0.0000,  0.0000)
  17 Ti     7.208152    0.948978   12.490345    ( 0.0000,  0.0000,  0.0000)
  18 O      2.569991    0.963234   12.758551    ( 0.0000,  0.0000,  0.0000)
  19 O      7.699615    2.877841   12.644702    ( 0.0000,  0.0000,  0.0000)
  20 O      0.383630    2.853788   13.406986    ( 0.0000,  0.0000,  0.0000)
  21 O      5.579255    1.002359   13.366776    ( 0.0000,  0.0000,  0.0000)
  22 O      9.186648    0.955394   11.982968    ( 0.0000,  0.0000,  0.0000)
  23 O      3.979703    2.906616   11.869884    ( 0.0000,  0.0000,  0.0000)
  24 O      9.991278    6.701856    7.416697    ( 0.0000,  0.0000,  0.0000)
  25 O      4.640266    4.766143    7.909177    ( 0.0000,  0.0000,  0.0000)
  26 Ti     2.785188    4.773225    7.999495    ( 0.0000,  0.0000,  0.0000)
  27 Ti     8.229211    6.736926    8.289676    ( 0.0000,  0.0000,  0.0000)
  28 Ti     0.713114    6.678008    9.182537    ( 0.0000,  0.0000,  0.0000)
  29 Ti     6.097007    4.748224    9.019115    ( 0.0000,  0.0000,  0.0000)
  30 O      1.068649    4.768040    8.949376    ( 0.0000,  0.0000,  0.0000)
  31 O      6.345333    6.683354    8.967611    ( 0.0000,  0.0000,  0.0000)
  32 O      9.250078    6.673119    9.846712    ( 0.0000,  0.0000,  0.0000)
  33 O      7.808095    4.756638    8.258519    ( 0.0000,  0.0000,  0.0000)
  34 O      2.604899    6.643057    8.416669    ( 0.0000,  0.0000,  0.0000)
  35 O      1.070322    6.587695   11.129683    ( 0.0000,  0.0000,  0.0000)
  36 O      6.013840    4.754736   10.980299    ( 0.0000,  0.0000,  0.0000)
  37 Ti     4.391632    4.731712   12.281363    ( 0.0000,  0.0000,  0.0000)
  38 Ti     9.639196    6.668426   11.944273    ( 0.0000,  0.0000,  0.0000)
  39 Ti     2.051311    6.645584   12.900387    ( 0.0000,  0.0000,  0.0000)
  40 Ti     7.223535    4.768777   12.415410    ( 0.0000,  0.0000,  0.0000)
  41 O      2.553582    4.711808   12.975561    ( 0.0000,  0.0000,  0.0000)
  42 O      7.671033    6.629417   12.754501    ( 0.0000,  0.0000,  0.0000)
  43 O      0.325671    6.691236   13.493014    ( 0.0000,  0.0000,  0.0000)
  44 O      5.687958    4.741280   13.512735    ( 0.0000,  0.0000,  0.0000)
  45 O      9.137315    4.771867   11.878847    ( 0.0000,  0.0000,  0.0000)
  46 O      3.963473    6.556747   11.816259    ( 0.0000,  0.0000,  0.0000)
  47 O      9.986778   10.513690    7.368738    ( 0.0000,  0.0000,  0.0000)
  48 O      4.837462    8.581566    7.404937    ( 0.0000,  0.0000,  0.0000)
  49 Ti     2.951323    8.588260    8.230297    ( 0.0000,  0.0000,  0.0000)
[...]
 22 O    -0.00271    0.00654   -0.00689
 23 O    -0.00075   -0.00700   -0.00087
 24 O    -1.66183   -0.00223    1.98725
 25 O    -0.29159   -0.01884    0.27614
 26 Ti    0.47442    0.07851    0.46358
 27 Ti    3.77538   -0.03993    0.17584
 28 Ti   -0.80626   -0.00948   -1.90496
 29 Ti   -0.73692    0.21961   -0.06538
 30 O     0.13503   -0.14456    0.05252
 31 O    -0.03099   -0.33160    0.00083
 32 O    -0.97525    0.02529    0.32032
 33 O     0.04838   -0.26968   -0.72955
 34 O     0.19787    0.15886   -0.74145
 35 O     0.01468   -0.00071    0.02956
 36 O     0.00474    0.01416   -0.00718
 37 Ti   -0.03322    0.00742    0.08396
 38 Ti    0.04303   -0.01765    0.05525
 39 Ti    0.51847    0.24113    0.65810
 40 Ti   -0.02249   -0.05665    0.03644
 41 O    -0.01672   -0.03538   -0.03996
 42 O    -0.04494    0.11774    0.03647
 43 O     0.02556    0.00953   -0.01537
 44 O     0.03175   -0.00265   -0.03648
 45 O    -0.00173    0.02310   -0.00050
 46 O     0.08946    0.08675   -0.07467
 47 O    -1.36481    0.08476    2.00916
 48 O    -1.00411   -0.05056    1.28727
 49 Ti    2.60363   -0.04664    1.05402
 50 Ti    3.36501   -0.42248    0.60406
 51 Ti   -0.81482   -0.08582   -2.45204
 52 Ti   -1.36126    0.11496   -1.32230
 53 O     0.25928    0.08992    0.13520
 54 O     0.09160    0.14013    0.07737
 55 O    -1.19828    0.15706    0.63091
 56 O    -0.91560    0.01312    0.24746
 57 O     0.11220    0.06038   -1.03277
 58 O     0.23412   -0.00420   -0.80490
 59 O     0.03231    0.01417    0.09640
[...]
 90 O    -0.04626    0.01446   -0.07354
 91 O     0.03401    0.00148   -0.03624
 92 O     0.18031   -0.03294    0.07206
 93 O     0.07230   -0.10722   -0.13642
 94 O     0.00523   -0.02624    0.00077
 95 V    -2.38505   -0.73061    3.72981
 96 O    -0.21692    0.00510   -0.15007
 97 O     0.21123    0.69284   -0.39300
 98 O    -0.70694   -0.11834   -1.53234
 99 V    -2.88055    0.04533    2.41676
100 O    -0.73131   -0.03741   -0.73643
101 O    -0.40955   -0.28126   -0.15428
102 O     0.42798    0.08169    0.16525
103 H     0.05804    0.07374    0.06098
104 H     0.02622   -0.01807    0.04090

System changes: positions

[...]

Density initialized from wave functions
 |        |                    O   |
 |        O    H  O         O      |
 |        |   Oi      O   H O V    |
 |     O  |   O V  O      Oi     Ti|
 |        | TO     Oi     O   O    |
 |    O   |      O     OTi    TiO  |
 |        TiO     O    O    O      |
 |        OTi   TiO  O TiO  Tii    |
 |  O  O  |O  TiTi   Ti    O  O  O |
 |      Tii  O OO   OOO   O        |
 |      OO| O     OTii    Tii      |
 |   O Ti | Tii     O   OO     O   |
 |    O   |O     OOTi    Oi        |
 |  Ti    |Oi  O  O    O     O     |
 |  O    O|     Ti    Ti           |
 |       Ti         O      O       |
 |        |  O                     |

[...]

Density initialized from wave functions
 |        |                    O   |
 |        O    H  O         O      |
 |        |   Oi      O   H O V    |
 |      O |   O V  O      Oi     Ti|
 |        | TO     Oi     O    O   |
 |    O   |      O     OTi    TiO  |
 |        TiO     O    O    O      |
 |        OTi   TiO  O TiO  Tii    |
 |  O  O  |O  TiTi   Ti    O  O  O |
 |      Tii  O OO   OOO   O        |
 |      OO| O     OTii    Tii      |
 |   O Ti | Tii     O   OO     O   |
 |    O   |O     OOTi    Oi        |
 |  Ti    |Oi  O  O    O     O     |
 |  O    O|     Ti    Ti           |
 |       Ti         O      O       |
 |        |  O                     |

[...]

Density initialized from wave functions
 |        |                    O   |
 |        O    H  O         O      |
 |        |   Oi      O   H OV     |
 |      O |   O V  O      Oi     Ti|
 |        | TO     Oi     O    O   |
 |    O   |      O     OTi    TiO  |
 |        TiO     O    O    O      |
 |        OTi   TiO  O TiO  Tii    |
 |  O   O |O  TiTi   Ti    O  O  O |
 |      Tii  O OO   OOO   O        |
 |      OO| O     OTii    Tii      |
 |   O Ti | Tii     O   OO     O   |
 |    O   |O     OOTi    Oi        |
 |  Ti    |Oi  O  O    O     O     |
 |  O    O|     Ti    Ti           |
 |       Ti         O      O       |
 |        |  O                     |

[...]

Density initialized from wave functions
 |        |                    O   |
 |        O   H  O          O      |
 |        |   Oi      O  H  OV     |
 |     O  |   O V  O      Oi     Ti|
 |        | Oi     Oi     O   O    |
 |    O   |      O     OTi    TiO  |
 |        TiO     O    O    O      |
 |        OTi   TiO  O TiO  Tii    |
 |  O  O  |O  TiTi   Ti    O  O  O |
 |      Tii  O OO   OOO   O        |
 |      OO| O     OTii    Tii      |
 |   O Ti | Tii     O   OO     O   |
 |    O   |O     OOTi    Oi        |
 |  Ti    |Oi  O  O    O     O     |
 |  O    O|     Ti    Ti           |
 |       Ti         O      O       |
 |        |  O                     |

[...]

Density initialized from wave functions
 |        |                    O   |
 |        O   H  O          O      |
 |        |   Oi      O  H  OV     |
 |     O  |   O V  O      Oi     Ti|
 |        | Oi     Oi     O   O    |
 |    O   |      O     OTi    TiO  |
 |        TiO     O    O    O      |
 |        OTi   TiO  O TiO  Tii    |
 |  O  O  |O  TiTi   Ti    O  O  O |
 |      Tii  O OO   OOO   O        |
 |      OO| O     OTii    Tii      |
 |   O Ti | Tii     O   OO     O   |
 |    O   |O     OOTi    Oi        |
 |  Ti    |Oi  O  O    O     O     |
 |  O    O|     Ti    Ti           |
 |       Ti         O      O       |
 |        |  O                     |

[...]

System changes: positions

Initializing position-dependent things.

Density initialized from wave functions
 |        |                    O   |
 |        O   H  O          O      |
 |        |   Oi      O  H  OV     |
 |     O  |   O V  O      Oi     Ti|
 |        | TO     Oi     O   O    |
 |    O   |      O     OTi    TiO  |
 |        TiO     O    O    O      |
 |        OTi   TiO  O TiO  Tii    |
 |  O  O  |O  TiTi   Ti    O  O  O |
 |      Tii  O OO   OOO   O        |
 |      OO| O     OTii    Tii      |
 |   O Ti | Tii     O   OO     O   |
 |    O   |O     OOTi    Oi        |
 |  Ti    |Oi  O  O    O     O     |
 |  O    O|     Ti    Ti           |
 |       Ti         O      O       |
 |        |  O                     |

Positions:
   0 O      9.985175    2.817512    7.418325    ( 0.0000,  0.0000,  0.0000)
   1 O      4.783264    0.944026    7.429735    ( 0.0000,  0.0000,  0.0000)
   2 Ti     2.996728    0.947334    8.325345    ( 0.0000,  0.0000,  0.0000)
   3 Ti     8.219380    2.762325    8.290231    ( 0.0000,  0.0000,  0.0000)
   4 Ti     0.657013    2.834279    8.996630    ( 0.0000,  0.0000,  0.0000)
   5 Ti     5.869204    0.907478    8.959613    ( 0.0000,  0.0000,  0.0000)
   6 O      1.103363    0.956808    8.933081    ( 0.0000,  0.0000,  0.0000)
   7 O      6.329588    2.829609    8.956631    ( 0.0000,  0.0000,  0.0000)
   8 O      9.244581    2.827586    9.849813    ( 0.0000,  0.0000,  0.0000)
   9 O      4.076120    0.928629    9.858025    ( 0.0000,  0.0000,  0.0000)
  10 O      7.779315    0.904056    8.349312    ( 0.0000,  0.0000,  0.0000)
  11 O      2.595771    2.888574    8.400027    ( 0.0000,  0.0000,  0.0000)
  12 O      1.092757    2.869405   11.028940    ( 0.0000,  0.0000,  0.0000)
  13 O      6.276647    0.915545   10.977285    ( 0.0000,  0.0000,  0.0000)
  14 Ti     4.409206    0.941291   11.950090    ( 0.0000,  0.0000,  0.0000)
  15 Ti     9.590902    2.841728   11.968252    ( 0.0000,  0.0000,  0.0000)
  16 Ti     2.025743    2.833666   12.550281    ( 0.0000,  0.0000,  0.0000)
  17 Ti     7.209023    0.948034   12.490211    ( 0.0000,  0.0000,  0.0000)
  18 O      2.570334    0.962131   12.757102    ( 0.0000,  0.0000,  0.0000)
  19 O      7.699400    2.877966   12.642636    ( 0.0000,  0.0000,  0.0000)
  20 O      0.382615    2.853661   13.406161    ( 0.0000,  0.0000,  0.0000)
  21 O      5.579772    1.002021   13.366502    ( 0.0000,  0.0000,  0.0000)
  22 O      9.186944    0.955346   11.982536    ( 0.0000,  0.0000,  0.0000)
  23 O      3.980009    2.906096   11.871175    ( 0.0000,  0.0000,  0.0000)
  24 O      9.991278    6.701856    7.416697    ( 0.0000,  0.0000,  0.0000)
  25 O      4.640266    4.766143    7.909177    ( 0.0000,  0.0000,  0.0000)
  26 Ti     2.785188    4.773225    7.999495    ( 0.0000,  0.0000,  0.0000)
  27 Ti     8.229211    6.736926    8.289676    ( 0.0000,  0.0000,  0.0000)
  28 Ti     0.713114    6.678008    9.182537    ( 0.0000,  0.0000,  0.0000)
  29 Ti     6.097007    4.748224    9.019115    ( 0.0000,  0.0000,  0.0000)
  30 O      1.068649    4.768040    8.949376    ( 0.0000,  0.0000,  0.0000)
  31 O      6.345333    6.683354    8.967611    ( 0.0000,  0.0000,  0.0000)
  32 O      9.250078    6.673119    9.846712    ( 0.0000,  0.0000,  0.0000)
  33 O      7.808095    4.756638    8.258519    ( 0.0000,  0.0000,  0.0000)
  34 O      2.604899    6.643057    8.416669    ( 0.0000,  0.0000,  0.0000)
  35 O      1.071284    6.586387   11.129017    ( 0.0000,  0.0000,  0.0000)
  36 O      6.014488    4.756568   10.980989    ( 0.0000,  0.0000,  0.0000)
  37 Ti     4.392155    4.731825   12.283315    ( 0.0000,  0.0000,  0.0000)
  38 Ti     9.640536    6.669891   11.944833    ( 0.0000,  0.0000,  0.0000)
  39 Ti     2.052976    6.644901   12.897460    ( 0.0000,  0.0000,  0.0000)
  40 Ti     7.224156    4.770118   12.415500    ( 0.0000,  0.0000,  0.0000)
  41 O      2.552965    4.710717   12.974732    ( 0.0000,  0.0000,  0.0000)
  42 O      7.674904    6.630718   12.753696    ( 0.0000,  0.0000,  0.0000)
  43 O      0.327409    6.696098   13.492943    ( 0.0000,  0.0000,  0.0000)
  44 O      5.690005    4.742072   13.514007    ( 0.0000,  0.0000,  0.0000)
  45 O      9.138797    4.772565   11.879680    ( 0.0000,  0.0000,  0.0000)
  46 O      3.965393    6.555605   11.816860    ( 0.0000,  0.0000,  0.0000)
  47 O      9.986778   10.513690    7.368738    ( 0.0000,  0.0000,  0.0000)
  48 O      4.837462    8.581566    7.404937    ( 0.0000,  0.0000,  0.0000)
  49 Ti     2.951323    8.588260    8.230297    ( 0.0000,  0.0000,  0.0000)
  50 Ti     8.135229   10.562779    8.208054    ( 0.0000,  0.0000,  0.0000)
  51 Ti     0.703342   10.528005    9.039919    ( 0.0000,  0.0000,  0.0000)
  52 Ti     5.913467    8.584452    8.939847    ( 0.0000,  0.0000,  0.0000)
  53 O      1.126777    8.573547    8.964116    ( 0.0000,  0.0000,  0.0000)
  54 O      6.301630   10.503252    8.965499    ( 0.0000,  0.0000,  0.0000)
  55 O      9.257931   10.435313    9.752852    ( 0.0000,  0.0000,  0.0000)
  56 O      4.081221    8.578441    9.762693    ( 0.0000,  0.0000,  0.0000)
  57 O      7.788076    8.609499    8.329822    ( 0.0000,  0.0000,  0.0000)
  58 O      2.604964   10.485475    8.378379    ( 0.0000,  0.0000,  0.0000)
  59 O      1.035639   10.547288   11.081817    ( 0.0000,  0.0000,  0.0000)
[...]
  90 O      7.730962   14.346051   12.762848    ( 0.0000,  0.0000,  0.0000)
  91 O      0.405840   14.315671   13.374851    ( 0.0000,  0.0000,  0.0000)
  92 O      5.533685   12.364919   13.481361    ( 0.0000,  0.0000,  0.0000)
  93 O      9.167842   12.429500   11.828683    ( 0.0000,  0.0000,  0.0000)
  94 O      4.023236   14.328438   12.011416    ( 0.0000,  0.0000,  0.0000)
  95 V      3.966351    8.526727   14.699915    ( 0.0000,  0.0000,  0.0000)
  96 O      2.876847   10.083576   14.540635    ( 0.0000,  0.0000,  0.0000)
  97 O      3.038425    7.066189   14.533133    ( 0.0000,  0.0000,  0.0000)
  98 O      4.626390    8.584346   16.143397    ( 0.0000,  0.0000,  0.0000)
  99 V      9.127559   10.553458   14.712428    ( 0.0000,  0.0000,  0.0000)
 100 O      8.209183   12.017730   14.507666    ( 0.0000,  0.0000,  0.0000)
 101 O      8.032420    9.002258   14.572925    ( 0.0000,  0.0000,  0.0000)
 102 O      9.787850   10.525524   16.156662    ( 0.0000,  0.0000,  0.0000)
 103 H      8.018569    8.367002   15.313507    ( 0.0000,  0.0000,  0.0000)
 104 H      2.881828   10.737608   15.265000    ( 0.0000,  0.0000,  0.0000)

Unit cell:
           periodic     x           y           z      points  spacing
  1. axis:    yes   10.341746    0.000000    0.000000    54     0.1915
  2. axis:    yes   -0.000000   15.289380    0.000000    80     0.1911
  3. axis:    yes    0.000000    0.000000   23.497201   125     0.1880

  Lengths:  10.341746  15.289380  23.497201
  Angles:   90.000000  90.000000  90.000000

Effective grid spacing dv^(1/3) = 0.1902

                     log10-error:    total        iterations:
           time      wfs    density  energy       fermi  poisson
iter:   1  04:57:08  -4.38   +inf  -859.679240    3
iter:   2  04:57:38  -5.28  -3.87  -859.681095    3
iter:   3  04:58:07  -5.90  -3.92  -859.680310    2
iter:   4  04:58:37  -5.50  -4.00  -859.680460    3
iter:   5  04:59:06  -6.34  -4.16  -859.680440    2
iter:   6  04:59:36  -6.61  -4.22  -859.680359    2
iter:   7  05:00:05  -6.57  -4.31  -859.680434    2
iter:   8  05:00:35  -7.04  -4.53  -859.680361    2
iter:   9  05:01:04  -7.45  -4.75  -859.680373    2

Converged after 9 iterations.

Dipole moment: (2.880804, -3.183171, -0.710041) |e|*Ang

Energy contributions relative to reference atoms: (reference = -935653.237240)

Kinetic:       +613.635558
Potential:     -782.228678
External:        +0.000000
XC:            -697.222219
Entropy (-ST):   -0.528579
Local:           +6.399255
Free energy:   -859.944663
Extrapolated:  -859.680373

Fermi level: -1.22399

Showing all kpts
 Kpt  Band  Eigenvalues  Occupancy
  0   411     -3.34797    1.00000
  0   412     -1.17516    0.38028
  0   413     -1.12392    0.26879
  0   414     -1.05782    0.15952

  1   411     -3.34798    1.00000
  1   412     -1.17105    0.37066
  1   413     -1.12693    0.27476
  1   414     -1.06405    0.16806

Forces in eV/Ang:
  0 O    -1.40756   -0.07183    1.17820
  1 O    -1.03052    0.00958    1.28712
  2 Ti    2.53380   -0.06643    1.27693
  3 Ti    2.43859    0.65551    0.93389
  4 Ti   -0.28790    0.10763   -1.10529
  5 Ti   -1.71378    0.28548   -1.03091
  6 O     0.27284   -0.18319   -0.11245
  7 O     0.27991    0.07866   -0.09758
  8 O    -0.95353   -0.05847   -0.27774
  9 O    -0.70373    0.02671   -0.24011
 10 O     0.11552    0.51261   -1.09804
 11 O     0.16584   -0.19003   -0.71524
 12 O     0.00053   -0.00013   -0.00072
 13 O     0.00049    0.00002   -0.00033
 14 Ti    0.00183   -0.00291   -0.00084
 15 Ti    0.00296    0.00041   -0.00093
 16 Ti   -0.00318    0.00057   -0.00025
 17 Ti   -0.00235    0.00077   -0.00206
 18 O     0.00007    0.00084    0.00052
 19 O     0.00081   -0.00151    0.00074
 20 O    -0.00025   -0.00020    0.00009
 21 O    -0.00119   -0.00004    0.00013
 22 O    -0.00057   -0.00103   -0.00019
 23 O    -0.00065   -0.00110   -0.00033
 24 O    -1.66104   -0.00389    1.97876
 25 O    -0.28641   -0.02113    0.27224
 26 Ti    0.47564    0.08350    0.47084
 27 Ti    3.77263   -0.03092    0.19330
 28 Ti   -0.81089   -0.00093   -1.90304
 29 Ti   -0.73873    0.23919   -0.06098
 30 O     0.13138   -0.15350    0.05346
 31 O    -0.02761   -0.35005   -0.00532
 32 O    -0.97725    0.02027    0.31734
 33 O     0.04957   -0.27534   -0.73088
 34 O     0.20151    0.16145   -0.74235
 35 O     0.00031   -0.00041   -0.00133
 36 O    -0.00065    0.00015    0.00055
 37 Ti    0.00066    0.00098   -0.00126
 38 Ti    0.00391    0.00406   -0.00084
 39 Ti   -0.00406   -0.00431   -0.00339
 40 Ti   -0.00155   -0.00386   -0.00310
 41 O     0.00003    0.00013    0.00008
 42 O     0.00028   -0.00219   -0.00019
 43 O    -0.00078   -0.00100    0.00044
 44 O     0.00018   -0.00114   -0.00086
 45 O    -0.00010    0.00165   -0.00080
 46 O    -0.00118    0.00017    0.00002
 47 O    -1.36440    0.09211    1.98231
 48 O    -1.01497   -0.05191    1.24086
 49 Ti    2.63281   -0.04138    1.08375
 50 Ti    3.37406   -0.43109    0.62738
 51 Ti   -0.81398   -0.09135   -2.41352
 52 Ti   -1.35378    0.12007   -1.26089
 53 O     0.25776    0.08309    0.13391
 54 O     0.09424    0.14807    0.06661
 55 O    -1.20045    0.15590    0.56129
 56 O    -0.92246    0.02173    0.14880
 57 O     0.12225    0.06182   -1.04343
 58 O     0.24112   -0.00863   -0.81389
 59 O     0.00001   -0.00172    0.00037
[...]
 90 O     0.00001    0.00045   -0.00068
 91 O     0.00054   -0.00051    0.00029
 92 O     0.00079   -0.00021   -0.00032
 93 O    -0.00151   -0.00213   -0.00003
 94 O    -0.00017   -0.00126   -0.00022
 95 V     0.00174    0.00073    0.00348
 96 O     0.00077    0.00117   -0.00088
 97 O    -0.00094    0.00068    0.00049
 98 O    -0.00121   -0.00048   -0.00127
 99 V    -0.00034   -0.00006    0.00468
100 O     0.00174   -0.00155   -0.00237
101 O     0.00338    0.00479   -0.00154
102 O     0.00405    0.00138    0.00093
103 H    -0.00191    0.00155   -0.00074
104 H    -0.00432   -0.00395    0.00316