User:   siva@s81n23.grendel.cscaa.dk
Date:   Fri Mar  6 12:44:43 2020
Arch:   x86_64
Pid:    8937
Python: 3.6.3
gpaw:   /home/siva/gpaw-1.5.1/gpaw
_gpaw:  /home/siva/gpaw-1.5.1/build/bin.linux-x86_64-3.6/gpaw-python
ase:    /home/siva/env1.5/lib/python3.6/site-packages/ase (version 3.17.0)
numpy:  /home/siva/env1.5/lib/python3.6/site-packages/numpy (version 1.16.0)
scipy:  /home/siva/env1.5/lib/python3.6/site-packages/scipy (version 1.2.0)
units:  Angstrom and eV
cores:  16
Extra parameters: {'blacs': True}

Input parameters:
  basis: dzp
  kpts: [2 2 1]
  mode: {ecut: 500.0,
         gammacentered: False,
         name: pw}
  xc: PBE

System changes: positions, numbers, cell, pbc, initial_charges, initial_magmoms

Initialize ...

O-setup:
  name: Oxygen
  id: 32ecd46bf208036f09c70b0ec9a88b78
  Z: 8
  valence: 6
  core: 2
  charge: 0.0
  file: /home/wido/sw/gpaw/basis/gpaw-setups-0.9.20000/O.PBE.gz
  cutoffs: 0.67(comp), 1.17(filt), 0.83(core), lmax=2
  valence states:
                energy  radius
    2s(2.00)   -23.961   0.688
    2p(4.00)    -9.029   0.598
    *s           3.251   0.688
    *p          18.182   0.598
    *d           0.000   0.619

  LCAO basis set for O:
    Name: dzp
    File: /home/wido/sw/gpaw/basis/gpaw-setups-0.9.20000/O.dzp.basis.gz
    Number of radial functions: 5
    Number of spherical harmonics: 13
      l=0, rc=4.3438 Bohr: 2s-sz confined orbital
      l=1, rc=5.3906 Bohr: 2p-sz confined orbital
      l=0, rc=2.2969 Bohr: 2s-dz split-valence wave
      l=1, rc=2.8906 Bohr: 2p-dz split-valence wave
      l=2, rc=5.3906 Bohr: d-type Gaussian polarization

Ti-setup:
  name: Titanium
  id: d282db07e62ae71292040bf25b25ccdd
  Z: 22
  valence: 12
  core: 10
  charge: 0.0
  file: /home/wido/sw/gpaw/basis/gpaw-setups-0.9.20000/Ti.PBE.gz
  cutoffs: 1.22(comp), 2.23(filt), 1.02(core), lmax=2
  valence states:
                energy  radius
    3s(2.00)   -62.623   1.270
    4s(2.00)    -4.466   1.270
    3p(6.00)   -38.862   1.058
    4p(0.00)    -1.466   1.058
    3d(2.00)    -4.258   1.058
    *d          22.953   1.058

  LCAO basis set for Ti:
    Name: dzp
    File: /home/wido/sw/gpaw/basis/gpaw-setups-0.9.20000/Ti.dzp.basis.gz
    Number of radial functions: 11
    Number of spherical harmonics: 29
      l=0, rc=3.4375 Bohr: 3s-sz confined orbital
      l=0, rc=9.9062 Bohr: 4s-sz confined orbital
      l=1, rc=3.8906 Bohr: 3p-sz confined orbital
      l=1, rc=13.1094 Bohr: 4p-sz confined orbital
      l=2, rc=6.6250 Bohr: 3d-sz confined orbital
      l=0, rc=2.1406 Bohr: 3s-dz split-valence wave
      l=0, rc=6.0156 Bohr: 4s-dz split-valence wave
      l=1, rc=2.3125 Bohr: 3p-dz split-valence wave
      l=1, rc=8.1094 Bohr: 4p-dz split-valence wave
      l=2, rc=3.8594 Bohr: 3d-dz split-valence wave
      l=1, rc=9.9062 Bohr: p-type Gaussian polarization

V-setup:
  name: Vanadium
  id: a8354638d66c808f8c867a10b63fd727
  Z: 23
  valence: 13
  core: 10
  charge: 0.0
  file: /home/wido/sw/gpaw/basis/gpaw-setups-0.9.20000/V.PBE.gz
  cutoffs: 1.19(comp), 2.14(filt), 0.96(core), lmax=2
  valence states:
                energy  radius
    3s(2.00)   -70.222   1.254
    4s(2.00)    -4.702   1.254
    3p(6.00)   -44.043   1.281
    4p(0.00)    -1.444   1.281
    3d(3.00)    -5.164   1.169
    *d          22.047   1.169

  LCAO basis set for V:
    Name: dzp
    File: /home/wido/sw/gpaw/basis/gpaw-setups-0.9.20000/V.dzp.basis.gz
    Number of radial functions: 11
    Number of spherical harmonics: 29
      l=0, rc=3.2656 Bohr: 3s-sz confined orbital
      l=0, rc=9.5312 Bohr: 4s-sz confined orbital
      l=1, rc=3.6719 Bohr: 3p-sz confined orbital
      l=1, rc=12.8750 Bohr: 4p-sz confined orbital
      l=2, rc=6.0938 Bohr: 3d-sz confined orbital
      l=0, rc=2.0625 Bohr: 3s-dz split-valence wave
      l=0, rc=5.7656 Bohr: 4s-dz split-valence wave
      l=1, rc=2.4062 Bohr: 3p-dz split-valence wave
      l=1, rc=7.8906 Bohr: 4p-dz split-valence wave
      l=2, rc=3.6562 Bohr: 3d-dz split-valence wave
      l=1, rc=9.5312 Bohr: p-type Gaussian polarization

H-setup:
  name: Hydrogen
  id: d65de229564ff8ea4db303e23b6d1ecf
  Z: 1
  valence: 1
  core: 0
  charge: 0.0
  file: /home/wido/sw/gpaw/basis/gpaw-setups-0.9.20000/H.PBE.gz
  cutoffs: 0.48(comp), 0.85(filt), 0.53(core), lmax=2
  valence states:
                energy  radius
    1s(1.00)    -6.494   0.476
    *s          20.717   0.476
    *p           0.000   0.476

  LCAO basis set for H:
    Name: dzp
    File: /home/wido/sw/gpaw/basis/gpaw-setups-0.9.20000/H.dzp.basis.gz
    Number of radial functions: 3
    Number of spherical harmonics: 5
      l=0, rc=6.4219 Bohr: 1s-sz confined orbital
      l=0, rc=3.6094 Bohr: 1s-dz split-valence wave
      l=1, rc=6.4219 Bohr: p-type Gaussian polarization

Reference energy: -719248.338470

Spin-paired calculation

Occupation numbers:
  Fermi-Dirac: width=0.1000 eV

Convergence criteria:
  Maximum total energy change: 0.0005 eV / electron
  Maximum integral of absolute density change: 0.0001 electrons
  Maximum integral of absolute eigenstate change: 4e-08 eV^2
  Maximum number of iterations: 333

Symmetries present (total): 1

  ( 1  0  0)
  ( 0  1  0)
  ( 0  0  1)

4 k-points: 2 x 2 x 1 Monkhorst-Pack grid
2 k-points in the irreducible part of the Brillouin zone
       k-points in crystal coordinates                weights
   0:     0.25000000   -0.25000000    0.00000000          2/4
   1:     0.25000000    0.25000000    0.00000000          2/4

Wave functions: Plane wave expansion
  Cutoff energy: 500.000 eV
  Number of coefficients (min, max): 70729, 70729
  Pulay-stress correction: 0.000000 eV/Ang^3 (de/decut=0.000000)
  Using FFTW library
  ScaLapack parameters: grid=1x1, blocksize=None
  Wavefunction extrapolation:
    Improved wavefunction reuse through dual PAW basis

Eigensolver
   Davidson(niter=2, smin=None, normalize=True)

Densities:
  Coarse grid: 54*60*125 grid
  Fine grid: 108*120*250 grid
  Total Charge: 0.000000

Density mixing:
  Method: separate
  Backend: pulay
  Linear mixing parameter: 0.05
  Mixing with 5 old densities
  Damping of long wave oscillations: 50

Hamiltonian:
  XC and Coulomb potentials evaluated on a 108*120*250 grid
  Using the PBE Exchange-Correlation functional

XC parameters: PBE with 2 nearest neighbor stencil

Total number of cores used: 16
Parallelization over k-points: 2
Domain decomposition: 1 x 2 x 4

Number of atoms: 82
Number of atomic orbitals: 1466
Number of bands in calculation: 388
Bands to converge: occupied states only
Number of valence electrons: 640

... initialized

Initializing position-dependent things.

Density initialized from atomic densities
Creating initial wave functions:
  388 bands from LCAO basis set

 |      |            O      O    |
 |     O|     O          O       |
 |      |  Oi     TO  H  OV      |
 |      |H OV   O      Oi    Oi  |
 |      |Oi     Oi     O   O     |
 |      |    O      O      TiO   |
 | O   TiO          Oi   O       |
 |      |    TiO  O   O   Ti     |
 |      O  O      TiTi  OTi    O |
 |  O Ti|   TO     O   O         |
 |    O |  O    OTi     Oi       |
 |  Ti  | Oi     O    O     O    |
 | O    O      Ti    Ti          |
 |      Ti          O     O      |
 |      |   O                    |

Positions:
   0 O      9.889324    1.911172    9.551683    ( 0.0000,  0.0000,  0.0000)
   1 O      4.718451    0.000000    9.551683    ( 0.0000,  0.0000,  0.0000)
   2 Ti     2.825504    0.000000   10.304640    ( 0.0000,  0.0000,  0.0000)
   3 Ti     7.996377    1.911172   10.304640    ( 0.0000,  0.0000,  0.0000)
   4 Ti     0.593255    1.911172   11.192561    ( 0.0000,  0.0000,  0.0000)
   5 Ti     5.764128    0.000000   11.192561    ( 0.0000,  0.0000,  0.0000)
   6 O      0.932557    0.000000   11.057597    ( 0.0000,  0.0000,  0.0000)
   7 O      6.103430    1.911172   11.057597    ( 0.0000,  0.0000,  0.0000)
   8 O      9.042055    1.911172   11.945518    ( 0.0000,  0.0000,  0.0000)
   9 O      3.871181    0.000000   11.945518    ( 0.0000,  0.0000,  0.0000)
  10 O      7.657075    0.000000   10.439604    ( 0.0000,  0.0000,  0.0000)
  11 O      2.486202    1.911172   10.439604    ( 0.0000,  0.0000,  0.0000)
  12 O      0.884316    1.895038   13.196926    ( 0.0000,  0.0000,  0.0000)
  13 O      6.079804    0.006459   13.140429    ( 0.0000,  0.0000,  0.0000)
  14 Ti     4.165276   -0.051170   14.026317    ( 0.0000,  0.0000,  0.0000)
  15 Ti     9.486524    1.894629   13.965731    ( 0.0000,  0.0000,  0.0000)
  16 Ti     1.872220    1.883263   15.017249    ( 0.0000,  0.0000,  0.0000)
  17 Ti     6.971705    0.016352   14.695646    ( 0.0000,  0.0000,  0.0000)
  18 O      2.352849   -0.035662   14.878795    ( 0.0000,  0.0000,  0.0000)
  19 O      7.448604    1.889810   15.001203    ( 0.0000,  0.0000,  0.0000)
  20 O      0.152849    1.923813   15.564133    ( 0.0000,  0.0000,  0.0000)
  21 O      5.317570   -0.033247   15.489556    ( 0.0000,  0.0000,  0.0000)
  22 O      8.951321    0.033996   14.062771    ( 0.0000,  0.0000,  0.0000)
  23 O      3.790039    1.873194   13.958154    ( 0.0000,  0.0000,  0.0000)
  24 O      9.889324    5.733517    9.551683    ( 0.0000,  0.0000,  0.0000)
  25 O      4.718451    3.822345    9.551683    ( 0.0000,  0.0000,  0.0000)
  26 Ti     2.825504    3.822345   10.304640    ( 0.0000,  0.0000,  0.0000)
  27 Ti     7.996377    5.733517   10.304640    ( 0.0000,  0.0000,  0.0000)
  28 Ti     0.593255    5.733517   11.192561    ( 0.0000,  0.0000,  0.0000)
  29 Ti     5.764128    3.822345   11.192561    ( 0.0000,  0.0000,  0.0000)
  30 O      0.932557    3.822345   11.057597    ( 0.0000,  0.0000,  0.0000)
  31 O      6.103430    5.733517   11.057597    ( 0.0000,  0.0000,  0.0000)
  32 O      9.042055    5.733517   11.945518    ( 0.0000,  0.0000,  0.0000)
  33 O      3.871181    3.822345   11.945518    ( 0.0000,  0.0000,  0.0000)
  34 O      7.657075    3.822345   10.439604    ( 0.0000,  0.0000,  0.0000)
  35 O      2.486202    5.733517   10.439604    ( 0.0000,  0.0000,  0.0000)
  36 O      0.850570    5.792590   13.218368    ( 0.0000,  0.0000,  0.0000)
  37 O      6.022821    3.762645   13.218710    ( 0.0000,  0.0000,  0.0000)
  38 Ti     4.076688    3.695729   13.839573    ( 0.0000,  0.0000,  0.0000)
  39 Ti     9.246265    5.860274   13.840555    ( 0.0000,  0.0000,  0.0000)
  40 Ti     1.952548    5.826385   14.740382    ( 0.0000,  0.0000,  0.0000)
  41 Ti     7.123193    3.728067   14.743097    ( 0.0000,  0.0000,  0.0000)
  42 O      2.323539    3.831419   14.656683    ( 0.0000,  0.0000,  0.0000)
  43 O      7.494207    5.724639   14.657311    ( 0.0000,  0.0000,  0.0000)
  44 O     -0.114097    5.754803   15.593991    ( 0.0000,  0.0000,  0.0000)
  45 O      5.057456    3.805471   15.593605    ( 0.0000,  0.0000,  0.0000)
  46 O      8.857559    3.759259   13.984335    ( 0.0000,  0.0000,  0.0000)
  47 O      3.684435    5.795840   13.977292    ( 0.0000,  0.0000,  0.0000)
  48 O      9.889324    9.555862    9.551683    ( 0.0000,  0.0000,  0.0000)
  49 O      4.718451    7.644690    9.551683    ( 0.0000,  0.0000,  0.0000)
  50 Ti     2.825504    7.644690   10.304640    ( 0.0000,  0.0000,  0.0000)
[...]
 23 O    -0.17651   -0.22726    0.24298
 24 O    -1.81543   -0.01299    1.70806
 25 O    -1.78573   -0.00342    1.74574
 26 Ti    3.44834   -0.04025    1.62576
 27 Ti    3.50933    0.14768    1.66186
 28 Ti   -1.51117    0.15749   -1.37438
 29 Ti   -1.50816   -0.04095   -1.58878
 30 O     0.97940    0.14466   -0.04309
 31 O     0.96993   -0.29201   -0.04960
 32 O    -0.79814   -0.12381   -1.15374
 33 O    -0.73857    0.06672   -1.05173
 34 O    -0.40886    0.19571   -0.85988
 35 O    -0.39179   -0.31127   -0.88236
 36 O    -0.34001   -0.14189   -0.43026
 37 O     0.00073   -0.04716   -0.01235
 38 Ti    0.07440    0.55466    0.00172
 39 Ti    0.20216    0.06196    0.13249
 40 Ti    0.73326    0.07255    2.15758
 41 Ti   -0.06642    0.24741    0.05622
 42 O    -0.02180   -1.51897   -0.03071
 43 O    -0.03657   -0.10379   -0.02924
 44 O    -0.21620   -0.03417   -0.11293
 45 O     0.03361   -0.15025   -0.10372
 46 O     0.06697   -0.20344   -0.01636
 47 O     0.22861   -0.07330   -0.22517
 48 O    -1.74412   -0.01431    1.55853
 49 O    -1.76612   -0.03396    1.50663
 50 Ti    4.14125    0.22290    2.24055
 51 Ti    3.99764    0.10273    2.24789
 52 Ti   -2.26843    0.01859   -2.26013
 53 Ti   -2.11162    0.20728   -1.17721
 54 O     0.84044   -0.18129   -0.11898
 55 O     0.90601    0.05486   -0.12007
 56 O    -0.49839    0.15659   -0.51251
 57 O    -0.71015    0.07127   -0.88273
 58 O    -0.26443   -0.30134   -0.94150
 59 O    -0.34945    0.01515   -0.91216
[...]
 67 O     0.00748    0.18594   -0.01792
 68 O    -0.01686    0.09869    0.00669
 69 O     0.11603    0.07357   -0.12162
 70 O     0.01605    0.12538   -0.02577
 71 O    -0.00247    0.34984    0.00224
 72 V     0.62669    7.52367    0.13030
 73 O     1.41317   -2.46210   -0.63218
 74 O    -1.37672   -2.34245    0.03234
 75 O    -0.03615   -0.35695    0.04093
 76 V     0.23775    0.06526    0.10384
 77 O    -0.11971   -0.02965   -0.08541
 78 O    -0.04176   -0.11913   -0.04052
 79 O    -0.05424    0.07118   -0.07080
 80 H    -0.01429    0.03464   -0.01461
 81 H    -0.11365   -1.11981    1.32036

System changes: positions

[...]

Density initialized from wave functions
 |      |            O      O    |
 |     O|     O          O       |
 |      |  Oi     TO  H  OV      |
 |      |H OV   O      Oi    Oi  |
 |      |Oi     Oi     O   O     |
 |      |    O      O      TiO   |
 | O   TiO          Oi   O       |
 |      |    TiO  O   O   Ti     |
 |      O  O      TiTi  OTi    O |
 |  O Ti|   TO     O   O         |
 |    O |  O    OTi     Oi       |
 |  Ti  | Oi     O    O     O    |
 | O    O      Ti    Ti          |
 |      Ti          O     O      |
 |      |   O                    |

[...]

Density initialized from wave functions
 |      |            O      O    |
 |     O|     O          O       |
 |      |  Oi     TO  H  OV      |
 |      |H OV   O      Oi    Oi  |
 |      |Oi     Oi     O   O     |
 |      |    O      O      TiO   |
 | O   TiO          Oi   O       |
 |      |    TiO  O   O   Ti     |
 |      O  O      TiTi  OTi    O |
 |  O Ti|   TO     O   O         |
 |    O |  O    OTi     Oi       |
 |  Ti  | Oi     O    O     O    |
 | O    O      Ti    Ti          |
 |      Ti          O     O      |
 |      |   O                    |

[...]

Density initialized from wave functions
 |      |            O      O    |
 |     O|     O          O       |
 |      |  Oi     TO  H  OV      |
 |      |H OV   O      Oi    Oi  |
 |      |Oi     Oi     O   O     |
 |      |    O      O      TiO   |
 | O   OTO          Oi   O       |
 |     Ti    TiO  O   O   Ti     |
 |      O  O      TiTi  OTi    O |
 |  O Ti|   TO     O   O         |
 |    O |  O    OTi     Oi       |
 |  Ti  | Oi     O    O     O    |
 | O    O      Ti    Ti          |
 |      Ti          O     O      |
 |      |   O                    |

[...]

Density initialized from wave functions
 |      |            O      O    |
 |     O|     O          O       |
 |      |  Oi     TO  H  OV      |
 |      |H OV   O      Oi    Oi  |
 |      |Oi     Oi     O   O     |
 |      |    O      O      TiO   |
 | O   OTO          Oi   O       |
 |     Ti    TiO  O   O   Ti     |
 |      O  O      TiTi  OTi    O |
 |  O Ti|   TO     O   O         |
 |    O |  O    OTi     Oi       |
 |  Ti  | Oi     O    O     O    |
 | O    O      Ti    Ti          |
 |      Ti          O     O      |
 |      |   O                    |

[...]

Density initialized from wave functions
 |      |            O      O    |
 |     O|     O          O       |
 |      |  Oi     TO  H  OV      |
 |      |H OV   O      Oi    Oi  |
 |      |Oi     Oi     O   O     |
 |      |    O      O      TiO   |
 | O   OTO          OTi  O       |
 |     Ti    TiO  O   O   Ti     |
 |      O  O      TiTi  OTi    O |
 |  O Ti|   TO     O   O         |
 |    O |  O    OTi     Oi       |
 |  Ti  | Oi     O    O     O    |
 | O    O      Ti    Ti          |
 |      Ti          O     O      |
 |      |   O                    |

[...]

Density initialized from wave functions
 |      |            O      O    |
 |     O|     O          O       |
 |      |  Oi     TO  H  OV      |
 |      |H OV   O      Oi    Oi  |
 |      |Oi     Oi     O   O     |
 |      |    O      OTi    TiO   |
 | O   OTO          O    O       |
 |     Ti    TiO  O   O   Ti     |
 |      O  O      TiTi  OTi    O |
 |  O Ti|   TO     O   O         |
 |    O |  O    OTi     Oi       |
 |  Ti  | Oi     O    O     O    |
 | O    O      Ti    Ti          |
 |      Ti          O     O      |
 |      |   O                    |

[...]

Converged after 13 iterations.

Dipole moment: (-13.097770, 5.603273, -0.644683) |e|*Ang

Energy contributions relative to reference atoms: (reference = -719248.338470)

Kinetic:       +420.369991
Potential:     -562.019818
External:        +0.000000
XC:            -530.578270
Entropy (-ST):   -0.000374
Local:           +5.189137
Free energy:   -667.039334
Extrapolated:  -667.039147

Fermi level: -2.23928

Showing all kpts
 Kpt  Band  Eigenvalues  Occupancy
  0   318     -3.29256    0.99997
  0   319     -3.28275    0.99997
  0   320     -1.23769    0.00004
  0   321     -1.19645    0.00003

  1   318     -3.29355    0.99997
  1   319     -3.28240    0.99997
  1   320     -1.23662    0.00004
  1   321     -1.19708    0.00003

Forces in eV/Ang:
  0 O    -1.73416    0.03197    1.55531
  1 O    -1.74243    0.02819    1.56349
  2 Ti    4.01454   -0.20512    2.23876
  3 Ti    4.10109   -0.25307    2.24208
  4 Ti   -2.29258   -0.23667   -1.75560
  5 Ti   -2.26749   -0.13241   -2.27713
  6 O     0.91395    0.02298   -0.12757
  7 O     0.83518    0.22438   -0.10424
  8 O    -0.62976   -0.02542   -0.68011
  9 O    -0.51288   -0.13654   -0.51923
 10 O    -0.35820    0.05413   -0.91000
 11 O    -0.26658    0.35318   -0.91634
 12 O    -0.00212   -0.06306    0.11591
 13 O    -0.00353   -0.03189    0.00953
 14 Ti    0.05254   -0.02539   -0.01246
 15 Ti   -0.00228   -0.03416   -0.07689
 16 Ti   -0.01104    0.04100   -0.01554
 17 Ti    0.01579    0.00965    0.02174
 18 O     0.01105    0.03832   -0.01630
 19 O     0.06316    0.00556   -0.06497
 20 O     0.02925    0.00759    0.02534
 21 O     0.00962    0.00277    0.02597
 22 O    -0.03893   -0.07718   -0.01480
 23 O    -0.01977    0.01883    0.02192
 24 O    -1.78048   -0.01529    1.72538
 25 O    -1.80722    0.00119    1.74895
 26 Ti    3.40292   -0.06990    1.57279
 27 Ti    3.47594    0.12463    1.64147
 28 Ti   -1.45178    0.11901   -1.14751
 29 Ti   -1.42720   -0.09678   -1.65683
 30 O     0.99900    0.16804   -0.04340
 31 O     0.96721   -0.29877   -0.04191
 32 O    -0.83264   -0.09700   -1.15582
 33 O    -0.74041    0.10818   -1.03309
 34 O    -0.42462    0.27128   -0.86052
 35 O    -0.39673   -0.31135   -0.85081
 36 O     0.02843   -0.03741   -0.02017
 37 O    -0.03463    0.00921    0.01969
 38 Ti    0.03562    0.01677    0.12499
 39 Ti    0.01186   -0.03530    0.03828
 40 Ti   -0.01566    0.00413   -0.01399
 41 Ti   -0.03409    0.11956    0.00594
 42 O    -0.02812    0.04760    0.02221
 43 O    -0.01558    0.03358    0.03194
 44 O     0.04692    0.00370    0.02918
 45 O    -0.13982   -0.04546    0.01907
 46 O     0.02718    0.08565   -0.04019
 47 O     0.03046    0.03957    0.03543
 48 O    -1.74075   -0.02312    1.55779
 49 O    -1.78413   -0.03863    1.51099
 50 Ti    4.12676    0.25196    2.21359
 51 Ti    3.99644    0.15167    2.25277
 52 Ti   -2.28215    0.09088   -2.27333
 53 Ti   -2.07928    0.24337   -1.20583
 54 O     0.83581   -0.24802   -0.07884
 55 O     0.90426    0.01574   -0.12074
 56 O    -0.49334    0.13565   -0.52093
 57 O    -0.73135    0.01540   -0.79451
 58 O    -0.26529   -0.33519   -0.93729
 59 O    -0.34698   -0.03493   -0.91297
[...]
 67 O    -0.01472   -0.06273    0.00254
 68 O     0.01151   -0.00334   -0.00174
 69 O     0.00195   -0.01390   -0.01730
 70 O     0.03537   -0.03751    0.00540
 71 O     0.01880   -0.02694    0.00153
 72 V     0.01703    0.24796   -0.03898
 73 O     0.06014   -0.11974    0.03440
 74 O    -0.11472   -0.07510   -0.08767
 75 O    -0.00313    0.06178   -0.04289
 76 V    -0.00486   -0.00130    0.03672
 77 O    -0.03244   -0.00310    0.04191
 78 O     0.00233    0.00315    0.02127
 79 O     0.00197    0.00068   -0.00460
 80 H    -0.00456   -0.01143    0.00494
 81 H     0.07882    0.06871   -0.02972

System changes: positions

Initializing position-dependent things.

Density initialized from wave functions
 |      |            O      O    |
 |     O|     O          O       |
 |      |  Oi     TO  H  OV      |
 |      |H OV   O      Oi    Oi  |
 |      |Oi     Oi     O   O     |
 |      |    O      OTi    TiO   |
 | O   OTO          O    O       |
 |     Ti    TiO  O   O   Ti     |
 |      O  O      TiTi  OTi    O |
 |  O Ti|   TO     O   O         |
 |    O |  O    OTi     Oi       |
 |  Ti  | Oi     O    O     O    |
 | O    O      Ti    Ti          |
 |      Ti          O     O      |
 |      |   O                    |

Positions:
   0 O      9.889324    1.911172    9.551683    ( 0.0000,  0.0000,  0.0000)
   1 O      4.718451    0.000000    9.551683    ( 0.0000,  0.0000,  0.0000)
   2 Ti     2.825504    0.000000   10.304640    ( 0.0000,  0.0000,  0.0000)
   3 Ti     7.996377    1.911172   10.304640    ( 0.0000,  0.0000,  0.0000)
   4 Ti     0.593255    1.911172   11.192561    ( 0.0000,  0.0000,  0.0000)
   5 Ti     5.764128    0.000000   11.192561    ( 0.0000,  0.0000,  0.0000)
   6 O      0.932557    0.000000   11.057597    ( 0.0000,  0.0000,  0.0000)
   7 O      6.103430    1.911172   11.057597    ( 0.0000,  0.0000,  0.0000)
   8 O      9.042055    1.911172   11.945518    ( 0.0000,  0.0000,  0.0000)
   9 O      3.871181    0.000000   11.945518    ( 0.0000,  0.0000,  0.0000)
  10 O      7.657075    0.000000   10.439604    ( 0.0000,  0.0000,  0.0000)
  11 O      2.486202    1.911172   10.439604    ( 0.0000,  0.0000,  0.0000)
  12 O      0.876815    1.860053   13.169964    ( 0.0000,  0.0000,  0.0000)
  13 O      6.078870    0.002532   13.143103    ( 0.0000,  0.0000,  0.0000)
  14 Ti     4.175023   -0.058952   14.028604    ( 0.0000,  0.0000,  0.0000)
  15 Ti     9.383317    1.889712   14.011486    ( 0.0000,  0.0000,  0.0000)
  16 Ti     1.815120    1.868666   14.800340    ( 0.0000,  0.0000,  0.0000)
  17 Ti     6.972729    0.006052   14.697049    ( 0.0000,  0.0000,  0.0000)
  18 O      2.356165   -0.035077   14.880326    ( 0.0000,  0.0000,  0.0000)
  19 O      7.480514    1.890796   14.986210    ( 0.0000,  0.0000,  0.0000)
  20 O      0.138863    1.915735   15.522469    ( 0.0000,  0.0000,  0.0000)
  21 O      5.321747   -0.027872   15.500498    ( 0.0000,  0.0000,  0.0000)
  22 O      8.940614    0.024863   14.058618    ( 0.0000,  0.0000,  0.0000)
  23 O      3.809830    1.858940   13.953908    ( 0.0000,  0.0000,  0.0000)
  24 O      9.889324    5.733517    9.551683    ( 0.0000,  0.0000,  0.0000)
  25 O      4.718451    3.822345    9.551683    ( 0.0000,  0.0000,  0.0000)
  26 Ti     2.825504    3.822345   10.304640    ( 0.0000,  0.0000,  0.0000)
  27 Ti     7.996377    5.733517   10.304640    ( 0.0000,  0.0000,  0.0000)
  28 Ti     0.593255    5.733517   11.192561    ( 0.0000,  0.0000,  0.0000)
  29 Ti     5.764128    3.822345   11.192561    ( 0.0000,  0.0000,  0.0000)
  30 O      0.932557    3.822345   11.057597    ( 0.0000,  0.0000,  0.0000)
  31 O      6.103430    5.733517   11.057597    ( 0.0000,  0.0000,  0.0000)
  32 O      9.042055    5.733517   11.945518    ( 0.0000,  0.0000,  0.0000)
  33 O      3.871181    3.822345   11.945518    ( 0.0000,  0.0000,  0.0000)
  34 O      7.657075    3.822345   10.439604    ( 0.0000,  0.0000,  0.0000)
  35 O      2.486202    5.733517   10.439604    ( 0.0000,  0.0000,  0.0000)
  36 O      0.836726    5.752849   13.254639    ( 0.0000,  0.0000,  0.0000)
  37 O      6.026652    3.750130   13.212284    ( 0.0000,  0.0000,  0.0000)
  38 Ti     4.080215    3.705810   13.833759    ( 0.0000,  0.0000,  0.0000)
  39 Ti     9.322964    5.855504   13.825493    ( 0.0000,  0.0000,  0.0000)
  40 Ti     1.994408    5.825215   14.906870    ( 0.0000,  0.0000,  0.0000)
  41 Ti     7.114812    3.787233   14.740054    ( 0.0000,  0.0000,  0.0000)
  42 O      2.327847    3.748257   14.639183    ( 0.0000,  0.0000,  0.0000)
  43 O      7.497103    5.718738   14.660247    ( 0.0000,  0.0000,  0.0000)
  44 O     -0.098888    5.748808   15.619229    ( 0.0000,  0.0000,  0.0000)
  45 O      5.064927    3.865633   15.595288    ( 0.0000,  0.0000,  0.0000)
  46 O      8.850203    3.766895   13.981151    ( 0.0000,  0.0000,  0.0000)
  47 O      3.675629    5.772513   14.003199    ( 0.0000,  0.0000,  0.0000)
  48 O      9.889324    9.555862    9.551683    ( 0.0000,  0.0000,  0.0000)
  49 O      4.718451    7.644690    9.551683    ( 0.0000,  0.0000,  0.0000)
  50 Ti     2.825504    7.644690   10.304640    ( 0.0000,  0.0000,  0.0000)
  51 Ti     7.996377    9.555862   10.304640    ( 0.0000,  0.0000,  0.0000)
  52 Ti     0.593255    9.555862   11.192561    ( 0.0000,  0.0000,  0.0000)
  53 Ti     5.764128    7.644690   11.192561    ( 0.0000,  0.0000,  0.0000)
  54 O      0.932557    7.644690   11.057597    ( 0.0000,  0.0000,  0.0000)
  55 O      6.103430    9.555862   11.057597    ( 0.0000,  0.0000,  0.0000)
  56 O      9.042055    9.555862   11.945518    ( 0.0000,  0.0000,  0.0000)
  57 O      3.871181    7.644690   11.945518    ( 0.0000,  0.0000,  0.0000)
  58 O      7.657075    7.644690   10.439604    ( 0.0000,  0.0000,  0.0000)
  59 O      2.486202    9.555862   10.439604    ( 0.0000,  0.0000,  0.0000)
[...]
  67 O      7.522972    9.588979   14.879593    ( 0.0000,  0.0000,  0.0000)
  68 O      0.148987    9.591174   15.488182    ( 0.0000,  0.0000,  0.0000)
  69 O      5.322010    7.629845   15.554993    ( 0.0000,  0.0000,  0.0000)
  70 O      8.963490    7.680692   13.959599    ( 0.0000,  0.0000,  0.0000)
  71 O      3.782780    9.520000   14.062751    ( 0.0000,  0.0000,  0.0000)
  72 V      3.730510    3.899103   16.839550    ( 0.0000,  0.0000,  0.0000)
  73 O      2.721287    5.315811   16.646649    ( 0.0000,  0.0000,  0.0000)
  74 O      2.771482    2.281013   16.733379    ( 0.0000,  0.0000,  0.0000)
  75 O      4.395312    3.885148   18.280489    ( 0.0000,  0.0000,  0.0000)
  76 V      8.905491    5.812639   16.848032    ( 0.0000,  0.0000,  0.0000)
  77 O      9.570976    5.756838   18.284589    ( 0.0000,  0.0000,  0.0000)
  78 O      7.840757    4.232398   16.718535    ( 0.0000,  0.0000,  0.0000)
  79 O      7.987607    7.287512   16.682168    ( 0.0000,  0.0000,  0.0000)
  80 H      7.886166    3.572265   17.435046    ( 0.0000,  0.0000,  0.0000)
  81 H      2.754376    1.659033   17.484514    ( 0.0000,  0.0000,  0.0000)

Unit cell:
           periodic     x           y           z      points  spacing
  1. axis:    yes   10.341746    0.000000    0.000000    54     0.1915
  2. axis:    yes   -0.000000   11.467000    0.000000    60     0.1911
  3. axis:    yes    0.000000    0.000000   23.497201   125     0.1880

  Lengths:  10.341746  11.467000  23.497201
  Angles:   90.000000  90.000000  90.000000

Effective grid spacing dv^(1/3) = 0.1902

                     log10-error:    total        iterations:
           time      wfs    density  energy       fermi  poisson
iter:   1  14:01:38  -3.49   +inf  -667.047625    2
iter:   2  14:01:59  -4.44  -3.56  -667.047240    2
iter:   3  14:02:21  -4.45  -3.59  -667.045707    2
iter:   4  14:02:42  -5.49  -3.79  -667.045770    2
iter:   5  14:03:03  -5.25  -3.81  -667.045669    2
iter:   6  14:03:25  -4.72  -3.95  -667.045689    2
iter:   7  14:03:46  -5.45  -4.01  -667.045457    2
iter:   8  14:04:08  -6.37  -4.31  -667.045448    1
iter:   9  14:04:29  -6.17  -4.48  -667.045456    1
iter:  10  14:04:51  -5.89  -4.45  -667.045448    2
iter:  11  14:05:12  -6.58  -4.66  -667.045438    2