User:   siva@s83n36.grendel.cscaa.dk
Date:   Wed Feb 26 11:12:41 2020
Arch:   x86_64
Pid:    10597
Python: 3.6.3
gpaw:   /home/siva/gpaw-1.5.1/gpaw
_gpaw:  /home/siva/gpaw-1.5.1/build/bin.linux-x86_64-3.6/gpaw-python
ase:    /home/siva/env1.5/lib/python3.6/site-packages/ase (version 3.17.0)
numpy:  /home/siva/env1.5/lib/python3.6/site-packages/numpy (version 1.16.0)
scipy:  /home/siva/env1.5/lib/python3.6/site-packages/scipy (version 1.2.0)
units:  Angstrom and eV
cores:  28
Extra parameters: {'blacs': True}

Input parameters:
  basis: dzp
  kpts: [2 2 1]
  mode: {ecut: 500.0,
         gammacentered: False,
         name: pw}
  xc: PBE

System changes: positions, numbers, cell, pbc, initial_charges, initial_magmoms

Initialize ...

O-setup:
  name: Oxygen
  id: 32ecd46bf208036f09c70b0ec9a88b78
  Z: 8
  valence: 6
  core: 2
  charge: 0.0
  file: /home/wido/sw/gpaw/basis/gpaw-setups-0.9.20000/O.PBE.gz
  cutoffs: 0.67(comp), 1.17(filt), 0.83(core), lmax=2
  valence states:
                energy  radius
    2s(2.00)   -23.961   0.688
    2p(4.00)    -9.029   0.598
    *s           3.251   0.688
    *p          18.182   0.598
    *d           0.000   0.619

  LCAO basis set for O:
    Name: dzp
    File: /home/wido/sw/gpaw/basis/gpaw-setups-0.9.20000/O.dzp.basis.gz
    Number of radial functions: 5
    Number of spherical harmonics: 13
      l=0, rc=4.3438 Bohr: 2s-sz confined orbital
      l=1, rc=5.3906 Bohr: 2p-sz confined orbital
      l=0, rc=2.2969 Bohr: 2s-dz split-valence wave
      l=1, rc=2.8906 Bohr: 2p-dz split-valence wave
      l=2, rc=5.3906 Bohr: d-type Gaussian polarization

Ti-setup:
  name: Titanium
  id: d282db07e62ae71292040bf25b25ccdd
  Z: 22
  valence: 12
  core: 10
  charge: 0.0
  file: /home/wido/sw/gpaw/basis/gpaw-setups-0.9.20000/Ti.PBE.gz
  cutoffs: 1.22(comp), 2.23(filt), 1.02(core), lmax=2
  valence states:
                energy  radius
    3s(2.00)   -62.623   1.270
    4s(2.00)    -4.466   1.270
    3p(6.00)   -38.862   1.058
    4p(0.00)    -1.466   1.058
    3d(2.00)    -4.258   1.058
    *d          22.953   1.058

  LCAO basis set for Ti:
    Name: dzp
    File: /home/wido/sw/gpaw/basis/gpaw-setups-0.9.20000/Ti.dzp.basis.gz
    Number of radial functions: 11
    Number of spherical harmonics: 29
      l=0, rc=3.4375 Bohr: 3s-sz confined orbital
      l=0, rc=9.9062 Bohr: 4s-sz confined orbital
      l=1, rc=3.8906 Bohr: 3p-sz confined orbital
      l=1, rc=13.1094 Bohr: 4p-sz confined orbital
      l=2, rc=6.6250 Bohr: 3d-sz confined orbital
      l=0, rc=2.1406 Bohr: 3s-dz split-valence wave
      l=0, rc=6.0156 Bohr: 4s-dz split-valence wave
      l=1, rc=2.3125 Bohr: 3p-dz split-valence wave
      l=1, rc=8.1094 Bohr: 4p-dz split-valence wave
      l=2, rc=3.8594 Bohr: 3d-dz split-valence wave
      l=1, rc=9.9062 Bohr: p-type Gaussian polarization

V-setup:
  name: Vanadium
  id: a8354638d66c808f8c867a10b63fd727
  Z: 23
  valence: 13
  core: 10
  charge: 0.0
  file: /home/wido/sw/gpaw/basis/gpaw-setups-0.9.20000/V.PBE.gz
  cutoffs: 1.19(comp), 2.14(filt), 0.96(core), lmax=2
  valence states:
                energy  radius
    3s(2.00)   -70.222   1.254
    4s(2.00)    -4.702   1.254
    3p(6.00)   -44.043   1.281
    4p(0.00)    -1.444   1.281
    3d(3.00)    -5.164   1.169
    *d          22.047   1.169

  LCAO basis set for V:
    Name: dzp
    File: /home/wido/sw/gpaw/basis/gpaw-setups-0.9.20000/V.dzp.basis.gz
    Number of radial functions: 11
    Number of spherical harmonics: 29
      l=0, rc=3.2656 Bohr: 3s-sz confined orbital
      l=0, rc=9.5312 Bohr: 4s-sz confined orbital
      l=1, rc=3.6719 Bohr: 3p-sz confined orbital
      l=1, rc=12.8750 Bohr: 4p-sz confined orbital
      l=2, rc=6.0938 Bohr: 3d-sz confined orbital
      l=0, rc=2.0625 Bohr: 3s-dz split-valence wave
      l=0, rc=5.7656 Bohr: 4s-dz split-valence wave
      l=1, rc=2.4062 Bohr: 3p-dz split-valence wave
      l=1, rc=7.8906 Bohr: 4p-dz split-valence wave
      l=2, rc=3.6562 Bohr: 3d-dz split-valence wave
      l=1, rc=9.5312 Bohr: p-type Gaussian polarization

H-setup:
  name: Hydrogen
  id: d65de229564ff8ea4db303e23b6d1ecf
  Z: 1
  valence: 1
  core: 0
  charge: 0.0
  file: /home/wido/sw/gpaw/basis/gpaw-setups-0.9.20000/H.PBE.gz
  cutoffs: 0.48(comp), 0.85(filt), 0.53(core), lmax=2
  valence states:
                energy  radius
    1s(1.00)    -6.494   0.476
    *s          20.717   0.476
    *p           0.000   0.476

  LCAO basis set for H:
    Name: dzp
    File: /home/wido/sw/gpaw/basis/gpaw-setups-0.9.20000/H.dzp.basis.gz
    Number of radial functions: 3
    Number of spherical harmonics: 5
      l=0, rc=6.4219 Bohr: 1s-sz confined orbital
      l=0, rc=3.6094 Bohr: 1s-dz split-valence wave
      l=1, rc=6.4219 Bohr: p-type Gaussian polarization

Reference energy: -935653.237240

Spin-paired calculation

Occupation numbers:
  Fermi-Dirac: width=0.1000 eV

Convergence criteria:
  Maximum total energy change: 0.0005 eV / electron
  Maximum integral of absolute density change: 0.0001 electrons
  Maximum integral of absolute eigenstate change: 4e-08 eV^2
  Maximum number of iterations: 333

Symmetries present (total): 1

  ( 1  0  0)
  ( 0  1  0)
  ( 0  0  1)

4 k-points: 2 x 2 x 1 Monkhorst-Pack grid
2 k-points in the irreducible part of the Brillouin zone
       k-points in crystal coordinates                weights
   0:     0.25000000   -0.25000000    0.00000000          2/4
   1:     0.25000000    0.25000000    0.00000000          2/4

Wave functions: Plane wave expansion
  Cutoff energy: 500.000 eV
  Number of coefficients (min, max): 94343, 94343
  Pulay-stress correction: 0.000000 eV/Ang^3 (de/decut=0.000000)
  Using FFTW library
  ScaLapack parameters: grid=1x1, blocksize=None
  Wavefunction extrapolation:
    Improved wavefunction reuse through dual PAW basis

Eigensolver
   Davidson(niter=2, smin=None, normalize=True)

Densities:
  Coarse grid: 54*80*125 grid
  Fine grid: 108*160*250 grid
  Total Charge: 0.000000

Density mixing:
  Method: separate
  Backend: pulay
  Linear mixing parameter: 0.05
  Mixing with 5 old densities
  Damping of long wave oscillations: 50

Hamiltonian:
  XC and Coulomb potentials evaluated on a 108*160*250 grid
  Using the PBE Exchange-Correlation functional

XC parameters: PBE with 2 nearest neighbor stencil

Total number of cores used: 28
Parallelization over k-points: 2
Domain decomposition: 1 x 2 x 7

Number of atoms: 105
Number of atomic orbitals: 1893
Number of bands in calculation: 500
Bands to converge: occupied states only
Number of valence electrons: 826

... initialized

Initializing position-dependent things.

Density initialized from atomic densities
Creating initial wave functions:
  500 bands from LCAO basis set

 |        O      O                 |
 |        |   Oi      O   H OO     |
 |      O | H  OV  O     OTi     Ti|
 |        | Oi     Oi     OV  O    |
 |    O   |      O     OOi    TiO  |
 |        TiO    O          O      |
 |        O     TiO  OTi O   Ti    |
 |  O     |O  OTi     Ti   OTiO  O |
 |     OTii  O OO    OO   O        |
 |      OO| O     OTii    Tii      |
 |   OTi  | Tii     O   OO     O   |
 |    O   |O     OTi     Oi        |
 |  Ti    TO   O  O    O     O     |
 |  O    O|     Ti    Ti           |
 |       Ti         O      O       |
 |        |  O                     |

Positions:
   0 O      9.974517    2.862499    7.395923    ( 0.0000,  0.0000,  0.0000)
   1 O      4.751576    0.970856    7.433844    ( 0.0000,  0.0000,  0.0000)
   2 Ti     2.973752    0.965511    8.331948    ( 0.0000,  0.0000,  0.0000)
   3 Ti     8.189404    2.803522    8.288172    ( 0.0000,  0.0000,  0.0000)
   4 Ti     0.613369    2.836809    8.994488    ( 0.0000,  0.0000,  0.0000)
   5 Ti     5.856682    0.938662    8.958328    ( 0.0000,  0.0000,  0.0000)
   6 O      1.063899    0.953977    8.954538    ( 0.0000,  0.0000,  0.0000)
   7 O      6.332739    2.842687    8.933688    ( 0.0000,  0.0000,  0.0000)
   8 O      9.254147    2.761528    9.821154    ( 0.0000,  0.0000,  0.0000)
   9 O      4.054529    0.983467    9.850791    ( 0.0000,  0.0000,  0.0000)
  10 O      7.750782    0.923741    8.323928    ( 0.0000,  0.0000,  0.0000)
  11 O      2.518424    2.887861    8.350100    ( 0.0000,  0.0000,  0.0000)
  12 O      1.083584    2.903229   11.006608    ( 0.0000,  0.0000,  0.0000)
  13 O      6.284878    0.925204   10.964316    ( 0.0000,  0.0000,  0.0000)
  14 Ti     4.398607    0.983306   11.931409    ( 0.0000,  0.0000,  0.0000)
  15 Ti     9.554236    2.816077   11.878511    ( 0.0000,  0.0000,  0.0000)
  16 Ti     2.012471    2.860517   12.528993    ( 0.0000,  0.0000,  0.0000)
  17 Ti     7.197864    0.937822   12.491953    ( 0.0000,  0.0000,  0.0000)
  18 O      2.556188    0.966976   12.714585    ( 0.0000,  0.0000,  0.0000)
  19 O      7.733630    2.846734   12.727548    ( 0.0000,  0.0000,  0.0000)
  20 O      0.377999    2.848656   13.410776    ( 0.0000,  0.0000,  0.0000)
  21 O      5.573727    1.038562   13.357012    ( 0.0000,  0.0000,  0.0000)
  22 O      9.167409    0.941196   11.927835    ( 0.0000,  0.0000,  0.0000)
  23 O      3.954184    2.909240   11.920836    ( 0.0000,  0.0000,  0.0000)
  24 O      9.990889    6.696232    7.341894    ( 0.0000,  0.0000,  0.0000)
  25 O      4.511960    4.787917    8.184082    ( 0.0000,  0.0000,  0.0000)
  26 Ti     2.724858    4.779771    7.960807    ( 0.0000,  0.0000,  0.0000)
  27 Ti     8.145479    6.707698    8.192011    ( 0.0000,  0.0000,  0.0000)
  28 Ti     0.630398    6.695439    9.077253    ( 0.0000,  0.0000,  0.0000)
  29 Ti     6.062248    4.766294    9.148169    ( 0.0000,  0.0000,  0.0000)
  30 O      1.023957    4.767147    8.931551    ( 0.0000,  0.0000,  0.0000)
  31 O      6.358432    6.708779    8.938070    ( 0.0000,  0.0000,  0.0000)
  32 O      9.235162    6.764411    9.751167    ( 0.0000,  0.0000,  0.0000)
  33 O      7.850578    4.773562    8.386917    ( 0.0000,  0.0000,  0.0000)
  34 O      2.498268    6.663844    8.333080    ( 0.0000,  0.0000,  0.0000)
  35 O      1.064415    6.519619   11.056037    ( 0.0000,  0.0000,  0.0000)
  36 O      5.831287    4.737886   10.932171    ( 0.0000,  0.0000,  0.0000)
  37 Ti     4.445508    4.790676   12.241362    ( 0.0000,  0.0000,  0.0000)
  38 Ti     9.392224    6.650207   11.631987    ( 0.0000,  0.0000,  0.0000)
  39 Ti     2.025547    6.626118   12.651525    ( 0.0000,  0.0000,  0.0000)
  40 Ti     7.436381    4.754254   13.043580    ( 0.0000,  0.0000,  0.0000)
  41 O      2.548827    4.735849   12.928283    ( 0.0000,  0.0000,  0.0000)
  42 O      7.628002    6.668753   12.514862    ( 0.0000,  0.0000,  0.0000)
  43 O      0.350857    6.677630   13.444649    ( 0.0000,  0.0000,  0.0000)
  44 O      5.653070    4.785927   13.574691    ( 0.0000,  0.0000,  0.0000)
  45 O      9.084984    4.774666   11.791512    ( 0.0000,  0.0000,  0.0000)
  46 O      3.950961    6.596938   11.828545    ( 0.0000,  0.0000,  0.0000)
  47 O      9.941219   10.526766    7.424162    ( 0.0000,  0.0000,  0.0000)
  48 O      4.793811    8.598035    7.389240    ( 0.0000,  0.0000,  0.0000)
  49 Ti     2.924043    8.598447    8.231525    ( 0.0000,  0.0000,  0.0000)
  50 Ti     8.168624   10.568713    8.307193    ( 0.0000,  0.0000,  0.0000)
[...]
 |      O | H  OV  O     OTi     Ti|
 |        | Oi     Oi     OV  O    |
 |   O    |      O     OOi    TiO  |
 |        OTO    O          O      |
 |        Oi  O TiO  OTi O   Ti    |
 |  O  O  |O   Ti     Ti   OTiO  O |
 |      Tii  O OO    OO   O        |
 |      OO| O     OTii    Tii      |
 |   OTi  | Tii     O   OO     O   |
 |    O   |O     OTi     Oi        |
 |  Ti    TO   O  O    O     O     |
 |  O    O|     Ti    Ti           |
 |       Ti         O      O       |
 |        |  O                     |

[...]

Density initialized from wave functions
 |        O      O                 |
 |        |   Oi      O   H OO     |
 |      O | H  OV  O     OTi     Ti|
 |        | Oi     Oi     OV  O    |
 |   O    |      O     OOi    TiO  |
 |        TiO    O          O      |
 |        O   O TiO  OTi O   Ti    |
 |  O  O  |O   Ti     Ti   OTiO  O |
 |      Tii  O OO    OO   O        |
 |      OO| O     OTii    Tii      |
 |   OTi  | Tii     O   OO     O   |
 |    O   |O     OTi     Oi        |
 |  Ti    TO   O  O    O     O     |
 |  O    O|     Ti    Ti           |
 |       Ti         O      O       |
 |        |  O                     |

[...]

Density initialized from wave functions
 |        O      O                 |
 |        |   Oi      O   H OO     |
 |      O | H  OV  O     OTi     Ti|
 |        | Oi     Oi     OV  O    |
 |   O    |      O     OOi    TiO  |
 |        OTO    O          O      |
 |        Oi  O TiO  OTi O   Ti    |
 |  O  O  |O   Ti     Ti   OTiO  O |
 |      Tii  O OO    OO   O        |
 |      OO| O     OTii    Tii      |
 |   OTi  | Tii     O   OO     O   |
 |    O   |O     OTi     Oi        |
 |  Ti    TO   O  O    O     O     |
 |  O    O|     Ti    Ti           |
 |       Ti         O      O       |
 |        |  O                     |

[...]

Density initialized from wave functions
 |        O      O                 |
 |        |   Oi      O   H OO     |
 |      O | H O V  O     OTi     Ti|
 |        | Oi     Oi     OV  O    |
 |   O    |      O     OOi    TiO  |
 |        OTO    O          O      |
 |        Oi  O TiO  OTi O   Ti    |
 |  O  O  |O   Ti     Ti   OTiO  O |
 |      Tii  O OO    OO   O        |
 |      OO| O     OTii    Tii      |
 |   OTi  | Tii     O   OO     O   |
 |    O   |O     OTi     Oi        |
 |  Ti    TO   O  O    O     O     |
 |  O    O|     Ti    Ti           |
 |       Ti         O      O       |
 |        |  O                     |

[...]

Density initialized from wave functions
 |        O      O                 |
 |        |   Oi      O   H OO     |
 |      O | H O V  O     OTi     Ti|
 |        | Oi     Oi     OV  O    |
 |   O    |      O     OOi    TiO  |
 |        OTO    O          O      |
 |        Oi  O TiO  OTi O   Ti    |
 |  O  O  |O   Ti     Ti   OTiO  O |
 |      Tii OO OO    OO   O        |
 |      OO|       OTii    Tii      |
 |   OTi  | Tii     O   OO     O   |
 |    O   |O     OTi     Oi        |
 |  Ti    TO   O  O    O     O     |
 |  O    O|     Ti    Ti           |
 |       Ti         O      O       |
 |        |  O                     |

[...]

Density initialized from wave functions
 |        O      O                 |
 |        |   Oi      O   H OO     |
 |      O | H  OV  O     OTi     Ti|
 |        | Oi     Oi     OV  O    |
 |   O    |      O     OOi    TiO  |
 |        OTO    O          O      |
 |        Oi  O TiO  OTi O   Ti    |
 |  O  O  |O   Ti     Ti   OTiO  O |
 |      Tii OO OO    OO   O        |
 |      OO|       OTii    Tii      |
 |   OTi  | Tii     O   OO     O   |
 |    O   |O     OTi     Oi        |
 |  Ti    TO   O  O    O     O     |
 |  O    O|     Ti    Ti           |
 |       Ti         O      O       |
 |        |  O                     |

[...]

Density initialized from wave functions
 |        O      O                 |
 |        |   Oi      O   H OO     |
 |      O | H O V  O     OTi     Ti|
 |        | Oi     Oi     OV  O    |
 |   O    |      O     OOi    TiO  |
 |        OTO    O          O      |
 |        Oi    TiO  OTi O   Ti    |
 |  O  O  |O  OTi     Ti   OTiO  O |
 |      Tii OO OO    OO   O        |
 |      OO|       OTii    Tii      |
 |   OTi  | Tii     O   OO     O   |
 |    O   |O     OTi     Oi        |
 |  Ti    TO   O  O    O     O     |
 |  O    O|     Ti    Ti           |
 |       Ti         O      O       |
 |        |  O                     |

[...]

Density initialized from wave functions
 |        O      O                 |
 |        |   Oi      O   H OO     |
 |      O | H O V  O     OTi     Ti|
 |        | Oi     Oi     OV  O    |
 |   O    |      O     OOi    TiO  |
 |        OTO     O         O      |
 |        Oi    TiO  OTi O   Ti    |
 |  O  O  |O  OTi     Ti   OTiO  O |
 |      Tii OO OO    OO   O        |
 |      OO|       OTii    Tii      |
 |   OTi  | Tii     O   OO     O   |
 |    O   |O     OTi     Oi        |
 |  Ti    TO   O  O    O     O     |
 |  O    O|     Ti    Ti           |
 |       Ti         O      O       |
 |        |  O                     |

[...]

Density initialized from wave functions
 |        O      O                 |
 |        |   Oi      O   H OO     |
 |      O | H  OV  O     OTi     Ti|
 |        | Oi     Oi     OV  O    |
 |   O    |      O     OOi    TiO  |
 |        OTO     O         O      |
 |        Oi  O TiO  OTi O   Ti    |
 |  O  O  |O   Ti     Ti   OTiO  O |
 |      Tii OO OO    OO   O        |
 |      OO|       OTii    Tii      |
 |   OTi  | Tii     O   OO     O   |
 |    O   |O     OTi     Oi        |
 |  Ti    TO   O  O    O     O     |
 |  O    O|     Ti    Ti           |
 |       Ti         O      O       |
 |        |  O                     |

[...]

System changes: positions

Initializing position-dependent things.

Density initialized from wave functions
 |        O      O                 |
 |        |   Oi      O   H OO     |
 |      O | H O V  O     OTi     Ti|
 |        | Oi     Oi     OV  O    |
 |   O    |      O     OOi    TiO  |
 |        OTO     O         O      |
 |        Oi  O TiO  OTi O   Ti    |
 |  O  O  |O   Ti     Ti   OTiO  O |
 |      Tii OO OO    OO   O        |
 |      OO|       OTii    Tii      |
 |   OTi  | Tii     O   OO     O   |
 |    O   |O     OTi     Oi        |
 |  Ti    TO   O  O    O     O     |
 |  O    O|     Ti    Ti           |
 |       Ti         O      O       |
 |        |  O                     |

Positions:
   0 O      9.974517    2.862499    7.395923    ( 0.0000,  0.0000,  0.0000)
   1 O      4.751576    0.970856    7.433844    ( 0.0000,  0.0000,  0.0000)
   2 Ti     2.973752    0.965511    8.331948    ( 0.0000,  0.0000,  0.0000)
   3 Ti     8.189404    2.803522    8.288172    ( 0.0000,  0.0000,  0.0000)
   4 Ti     0.613369    2.836809    8.994488    ( 0.0000,  0.0000,  0.0000)
   5 Ti     5.856682    0.938662    8.958328    ( 0.0000,  0.0000,  0.0000)
   6 O      1.063899    0.953977    8.954538    ( 0.0000,  0.0000,  0.0000)
   7 O      6.332739    2.842687    8.933688    ( 0.0000,  0.0000,  0.0000)
   8 O      9.254147    2.761528    9.821154    ( 0.0000,  0.0000,  0.0000)
   9 O      4.054529    0.983467    9.850791    ( 0.0000,  0.0000,  0.0000)
  10 O      7.750782    0.923741    8.323928    ( 0.0000,  0.0000,  0.0000)
  11 O      2.518424    2.887861    8.350100    ( 0.0000,  0.0000,  0.0000)
  12 O      1.092125    2.889953   11.034028    ( 0.0000,  0.0000,  0.0000)
  13 O      6.267596    0.961638   10.990229    ( 0.0000,  0.0000,  0.0000)
  14 Ti     4.405045    0.958723   11.964861    ( 0.0000,  0.0000,  0.0000)
  15 Ti     9.578030    2.827708   11.972631    ( 0.0000,  0.0000,  0.0000)
  16 Ti     2.017050    2.855324   12.556724    ( 0.0000,  0.0000,  0.0000)
  17 Ti     7.203902    0.939632   12.510229    ( 0.0000,  0.0000,  0.0000)
  18 O      2.551413    0.959618   12.759471    ( 0.0000,  0.0000,  0.0000)
  19 O      7.734802    2.844509   12.802438    ( 0.0000,  0.0000,  0.0000)
  20 O      0.368697    2.852199   13.409892    ( 0.0000,  0.0000,  0.0000)
  21 O      5.573617    0.952938   13.382263    ( 0.0000,  0.0000,  0.0000)
  22 O      9.179299    0.943850   11.982475    ( 0.0000,  0.0000,  0.0000)
  23 O      3.985051    2.897415   12.007947    ( 0.0000,  0.0000,  0.0000)
  24 O      9.990889    6.696232    7.341894    ( 0.0000,  0.0000,  0.0000)
  25 O      4.511960    4.787917    8.184082    ( 0.0000,  0.0000,  0.0000)
  26 Ti     2.724858    4.779771    7.960807    ( 0.0000,  0.0000,  0.0000)
  27 Ti     8.145479    6.707698    8.192011    ( 0.0000,  0.0000,  0.0000)
  28 Ti     0.630398    6.695439    9.077253    ( 0.0000,  0.0000,  0.0000)
  29 Ti     6.062248    4.766294    9.148169    ( 0.0000,  0.0000,  0.0000)
  30 O      1.023957    4.767147    8.931551    ( 0.0000,  0.0000,  0.0000)
  31 O      6.358432    6.708779    8.938070    ( 0.0000,  0.0000,  0.0000)
  32 O      9.235162    6.764411    9.751167    ( 0.0000,  0.0000,  0.0000)
  33 O      7.850578    4.773562    8.386917    ( 0.0000,  0.0000,  0.0000)
  34 O      2.498268    6.663844    8.333080    ( 0.0000,  0.0000,  0.0000)
  35 O      0.998194    6.556366   11.110401    ( 0.0000,  0.0000,  0.0000)
  36 O      5.792539    4.759975   10.935232    ( 0.0000,  0.0000,  0.0000)
  37 Ti     4.472828    4.745426   12.270841    ( 0.0000,  0.0000,  0.0000)
  38 Ti     9.445396    6.660188   11.716908    ( 0.0000,  0.0000,  0.0000)
  39 Ti     2.112427    6.627521   12.619916    ( 0.0000,  0.0000,  0.0000)
  40 Ti     7.490663    4.769151   13.132903    ( 0.0000,  0.0000,  0.0000)
  41 O      2.518271    4.741339   12.955585    ( 0.0000,  0.0000,  0.0000)
  42 O      7.665225    6.667639   12.589831    ( 0.0000,  0.0000,  0.0000)
  43 O      0.114947    6.730047   13.480656    ( 0.0000,  0.0000,  0.0000)
  44 O      5.666336    4.793749   13.596222    ( 0.0000,  0.0000,  0.0000)
  45 O      9.094996    4.757329   11.868554    ( 0.0000,  0.0000,  0.0000)
  46 O      3.864855    6.572592   11.861983    ( 0.0000,  0.0000,  0.0000)
  47 O      9.941219   10.526766    7.424162    ( 0.0000,  0.0000,  0.0000)
  48 O      4.793811    8.598035    7.389240    ( 0.0000,  0.0000,  0.0000)
  49 Ti     2.924043    8.598447    8.231525    ( 0.0000,  0.0000,  0.0000)
  50 Ti     8.168624   10.568713    8.307193    ( 0.0000,  0.0000,  0.0000)
  51 Ti     0.689842   10.519812    9.160804    ( 0.0000,  0.0000,  0.0000)
  52 Ti     5.895270    8.633917    8.910762    ( 0.0000,  0.0000,  0.0000)
  53 O      1.085423    8.597422    8.995679    ( 0.0000,  0.0000,  0.0000)
  54 O      6.252646   10.528029    8.921193    ( 0.0000,  0.0000,  0.0000)
  55 O      9.220059   10.568411    9.844708    ( 0.0000,  0.0000,  0.0000)
  56 O      4.059029    8.507535    9.748930    ( 0.0000,  0.0000,  0.0000)
  57 O      7.758726    8.628199    8.273162    ( 0.0000,  0.0000,  0.0000)
  58 O      2.566398   10.490594    8.371621    ( 0.0000,  0.0000,  0.0000)
  59 O      1.046869   10.535114   11.113054    ( 0.0000,  0.0000,  0.0000)
[...]
  90 O      7.711947   14.330115   12.746167    ( 0.0000,  0.0000,  0.0000)
  91 O      0.413180   14.330589   13.410225    ( 0.0000,  0.0000,  0.0000)
  92 O      5.548636   12.409374   13.358424    ( 0.0000,  0.0000,  0.0000)
  93 O      9.174929   12.405969   12.010699    ( 0.0000,  0.0000,  0.0000)
  94 O      4.001800   14.349122   11.952110    ( 0.0000,  0.0000,  0.0000)
  95 V      3.962699    8.666639   14.711170    ( 0.0000,  0.0000,  0.0000)
  96 O      3.038830   10.120247   14.506099    ( 0.0000,  0.0000,  0.0000)
  97 O      2.865731    7.113486   14.595796    ( 0.0000,  0.0000,  0.0000)
  98 O      4.620709    8.640852   16.156501    ( 0.0000,  0.0000,  0.0000)
  99 V      9.213673    6.732190   14.795820    ( 0.0000,  0.0000,  0.0000)
 100 O      8.356552    5.148371   14.700857    ( 0.0000,  0.0000,  0.0000)
 101 O      8.057523    8.225058   14.627513    ( 0.0000,  0.0000,  0.0000)
 102 O      9.956221    6.868154   16.190011    ( 0.0000,  0.0000,  0.0000)
 103 H      8.091685    8.916250   15.316476    ( 0.0000,  0.0000,  0.0000)
 104 H      2.814047    6.500084   15.352635    ( 0.0000,  0.0000,  0.0000)

Unit cell:
           periodic     x           y           z      points  spacing
  1. axis:    yes   10.341746    0.000000    0.000000    54     0.1915
  2. axis:    yes   -0.000000   15.289380    0.000000    80     0.1911
  3. axis:    yes    0.000000    0.000000   23.497201   125     0.1880

  Lengths:  10.341746  15.289380  23.497201
  Angles:   90.000000  90.000000  90.000000

Effective grid spacing dv^(1/3) = 0.1902

                     log10-error:    total        iterations:
           time      wfs    density  energy       fermi  poisson
iter:   1  19:58:10  -4.96   +inf  -860.062613    2
iter:   2  19:58:33  -5.84  -4.20  -860.062716    2
iter:   3  19:58:55  -6.44  -4.28  -860.062519    2
iter:   4  19:59:17  -6.17  -4.37  -860.062685    2
iter:   5  19:59:39  -6.89  -4.53  -860.062542    2
iter:   6  20:00:01  -7.07  -4.62  -860.062588    2
iter:   7  20:00:23  -7.22  -4.80  -860.062597    2
iter:   8  20:00:46  -7.79  -4.99  -860.062551    2

Converged after 8 iterations.

Dipole moment: (0.235724, -0.340568, -0.619800) |e|*Ang

Energy contributions relative to reference atoms: (reference = -935653.237240)

Kinetic:       +622.703803
Potential:     -789.891448
External:        +0.000000
XC:            -698.955200
Entropy (-ST):   -0.558739
Local:           +6.359665
Free energy:   -860.341920
Extrapolated:  -860.062551

Fermi level: -1.18666

Showing all kpts
 Kpt  Band  Eigenvalues  Occupancy
  0   411     -3.17913    1.00000
  0   412     -1.10656    0.30983
  0   413     -1.08085    0.25769
  0   414     -1.02622    0.16737

  1   411     -3.17970    1.00000
  1   412     -1.09906    0.29401
  1   413     -1.08504    0.26578
  1   414     -1.01847    0.15685

Forces in eV/Ang:
  0 O    -1.50176   -0.09990    1.24398
  1 O    -1.02622    0.01617    1.25205
  2 Ti    2.52689    0.01262    1.15708
  3 Ti    2.62994    0.29560    0.74390
  4 Ti   -0.05482    0.08499   -1.45399
  5 Ti   -1.80514    0.14688   -1.06004
  6 O     0.30576   -0.08986    0.00061
  7 O     0.11707    0.30956   -0.21173
  8 O    -1.40472    0.03568    0.35906
  9 O    -0.69945   -0.03968   -0.02554
 10 O     0.18898    0.41952   -1.05712
 11 O     0.42641   -0.17835   -1.01993
 12 O    -0.00024    0.00297    0.00058
 13 O    -0.00034    0.00026    0.00090
 14 Ti    0.00028    0.00158   -0.00007
 15 Ti   -0.00299   -0.00060   -0.00053
 16 Ti   -0.00345    0.00053   -0.00001
 17 Ti   -0.00088   -0.00183    0.00038
 18 O    -0.00335   -0.00000    0.00025
 19 O    -0.00020   -0.00071   -0.00124
 20 O    -0.00098   -0.00043   -0.00110
 21 O    -0.00063   -0.00146    0.00164
 22 O    -0.00035   -0.00244   -0.00197
 23 O     0.00181   -0.00256    0.00127
 24 O    -1.51852   -0.05995    2.17546
 25 O    -0.07374   -0.02254   -0.16718
 26 Ti   -0.25492    0.02497    0.72672
 27 Ti    3.41988    0.54817    0.24156
 28 Ti    0.10329   -0.03220   -2.66240
 29 Ti   -0.50067    0.12785    0.28644
 30 O     0.23051    0.13941    0.09832
 31 O    -0.19560   -0.36904   -0.07896
 32 O    -1.70321   -0.05349    0.96540
 33 O    -0.13054   -0.24271   -0.85855
 34 O     0.43134    0.14620   -1.06516
 35 O    -0.00024   -0.00072   -0.00244
 36 O    -0.00077    0.00029   -0.00116
 37 Ti   -0.00168    0.00284   -0.00237
 38 Ti    0.00148    0.00079    0.00140
 39 Ti   -0.00102    0.00030   -0.00210
 40 Ti   -0.00214   -0.00026    0.00037
 41 O    -0.00051    0.00189   -0.00018
 42 O     0.00137    0.00001    0.00069
 43 O    -0.00067   -0.00068    0.00242
 44 O     0.00132    0.00170    0.00087
 45 O    -0.00096    0.00051   -0.00161
 46 O    -0.00121   -0.00351    0.00110
 47 O    -1.50757    0.01708    2.07782
 48 O    -0.99403   -0.01537    1.24156
 49 Ti    2.52668   -0.05710    0.97900
 50 Ti    3.75458   -0.18549    0.23153
 51 Ti   -1.25288    0.04179   -2.14970
 52 Ti   -1.32866    0.11799   -1.27712
 53 O     0.24499   -0.09443    0.13245
 54 O    -0.03636   -0.10915   -0.05584
 55 O    -0.87441   -0.11216    0.60006
 56 O    -0.83211    0.02138    0.22921
 57 O     0.13562   -0.08054   -0.79110
 58 O     0.22775    0.03919   -0.73279
 59 O    -0.00409    0.00034    0.00089
[...]
 90 O    -0.00035   -0.00071    0.00181
 91 O     0.00062   -0.00112    0.00002
 92 O    -0.00059   -0.00131    0.00101
 93 O     0.00155   -0.00133    0.00358
 94 O     0.00433   -0.00102    0.00136
 95 V    -0.00352    0.00142   -0.00184
 96 O    -0.00200    0.00023   -0.00333
 97 O    -0.00083    0.00539    0.00177
 98 O     0.00209   -0.00079    0.00225
 99 V    -0.00074   -0.00451    0.00070
100 O    -0.00023   -0.00101   -0.00145
101 O    -0.00295    0.00259   -0.00112
102 O     0.00328   -0.00554   -0.00198
103 H     0.00546   -0.00576    0.00196
104 H     0.00660    0.00356    0.00070