User:   siva@s84n22.grendel.cscaa.dk
Date:   Thu Feb 27 10:51:25 2020
Arch:   x86_64
Pid:    24171
Python: 3.6.3
gpaw:   /home/siva/gpaw-1.5.1/gpaw
_gpaw:  /home/siva/gpaw-1.5.1/build/bin.linux-x86_64-3.6/gpaw-python
ase:    /home/siva/env1.5/lib/python3.6/site-packages/ase (version 3.17.0)
numpy:  /home/siva/env1.5/lib/python3.6/site-packages/numpy (version 1.16.0)
scipy:  /home/siva/env1.5/lib/python3.6/site-packages/scipy (version 1.2.0)
units:  Angstrom and eV
cores:  100
Extra parameters: {'blacs': True}

Input parameters:
  basis: dzp
  kpts: [2 2 1]
  maxiter: 99
  mode: {ecut: 500.0,
         gammacentered: False,
         name: pw}
  xc: PBE

System changes: positions, numbers, cell, pbc, initial_charges, initial_magmoms

Initialize ...

O-setup:
  name: Oxygen
  id: 32ecd46bf208036f09c70b0ec9a88b78
  Z: 8
  valence: 6
  core: 2
  charge: 0.0
  file: /home/wido/sw/gpaw/basis/gpaw-setups-0.9.20000/O.PBE.gz
  cutoffs: 0.67(comp), 1.17(filt), 0.83(core), lmax=2
  valence states:
                energy  radius
    2s(2.00)   -23.961   0.688
    2p(4.00)    -9.029   0.598
    *s           3.251   0.688
    *p          18.182   0.598
    *d           0.000   0.619

  LCAO basis set for O:
    Name: dzp
    File: /home/wido/sw/gpaw/basis/gpaw-setups-0.9.20000/O.dzp.basis.gz
    Number of radial functions: 5
    Number of spherical harmonics: 13
      l=0, rc=4.3438 Bohr: 2s-sz confined orbital
      l=1, rc=5.3906 Bohr: 2p-sz confined orbital
      l=0, rc=2.2969 Bohr: 2s-dz split-valence wave
      l=1, rc=2.8906 Bohr: 2p-dz split-valence wave
      l=2, rc=5.3906 Bohr: d-type Gaussian polarization

Ti-setup:
  name: Titanium
  id: d282db07e62ae71292040bf25b25ccdd
  Z: 22
  valence: 12
  core: 10
  charge: 0.0
  file: /home/wido/sw/gpaw/basis/gpaw-setups-0.9.20000/Ti.PBE.gz
  cutoffs: 1.22(comp), 2.23(filt), 1.02(core), lmax=2
  valence states:
                energy  radius
    3s(2.00)   -62.623   1.270
    4s(2.00)    -4.466   1.270
    3p(6.00)   -38.862   1.058
    4p(0.00)    -1.466   1.058
    3d(2.00)    -4.258   1.058
    *d          22.953   1.058

  LCAO basis set for Ti:
    Name: dzp
    File: /home/wido/sw/gpaw/basis/gpaw-setups-0.9.20000/Ti.dzp.basis.gz
    Number of radial functions: 11
    Number of spherical harmonics: 29
      l=0, rc=3.4375 Bohr: 3s-sz confined orbital
      l=0, rc=9.9062 Bohr: 4s-sz confined orbital
      l=1, rc=3.8906 Bohr: 3p-sz confined orbital
      l=1, rc=13.1094 Bohr: 4p-sz confined orbital
      l=2, rc=6.6250 Bohr: 3d-sz confined orbital
      l=0, rc=2.1406 Bohr: 3s-dz split-valence wave
      l=0, rc=6.0156 Bohr: 4s-dz split-valence wave
      l=1, rc=2.3125 Bohr: 3p-dz split-valence wave
      l=1, rc=8.1094 Bohr: 4p-dz split-valence wave
      l=2, rc=3.8594 Bohr: 3d-dz split-valence wave
      l=1, rc=9.9062 Bohr: p-type Gaussian polarization

V-setup:
  name: Vanadium
  id: a8354638d66c808f8c867a10b63fd727
  Z: 23
  valence: 13
  core: 10
  charge: 0.0
  file: /home/wido/sw/gpaw/basis/gpaw-setups-0.9.20000/V.PBE.gz
  cutoffs: 1.19(comp), 2.14(filt), 0.96(core), lmax=2
  valence states:
                energy  radius
    3s(2.00)   -70.222   1.254
    4s(2.00)    -4.702   1.254
    3p(6.00)   -44.043   1.281
    4p(0.00)    -1.444   1.281
    3d(3.00)    -5.164   1.169
    *d          22.047   1.169

  LCAO basis set for V:
    Name: dzp
    File: /home/wido/sw/gpaw/basis/gpaw-setups-0.9.20000/V.dzp.basis.gz
    Number of radial functions: 11
    Number of spherical harmonics: 29
      l=0, rc=3.2656 Bohr: 3s-sz confined orbital
      l=0, rc=9.5312 Bohr: 4s-sz confined orbital
      l=1, rc=3.6719 Bohr: 3p-sz confined orbital
      l=1, rc=12.8750 Bohr: 4p-sz confined orbital
      l=2, rc=6.0938 Bohr: 3d-sz confined orbital
      l=0, rc=2.0625 Bohr: 3s-dz split-valence wave
      l=0, rc=5.7656 Bohr: 4s-dz split-valence wave
      l=1, rc=2.4062 Bohr: 3p-dz split-valence wave
      l=1, rc=7.8906 Bohr: 4p-dz split-valence wave
      l=2, rc=3.6562 Bohr: 3d-dz split-valence wave
      l=1, rc=9.5312 Bohr: p-type Gaussian polarization

H-setup:
  name: Hydrogen
  id: d65de229564ff8ea4db303e23b6d1ecf
  Z: 1
  valence: 1
  core: 0
  charge: 0.0
  file: /home/wido/sw/gpaw/basis/gpaw-setups-0.9.20000/H.PBE.gz
  cutoffs: 0.48(comp), 0.85(filt), 0.53(core), lmax=2
  valence states:
                energy  radius
    1s(1.00)    -6.494   0.476
    *s          20.717   0.476
    *p           0.000   0.476

  LCAO basis set for H:
    Name: dzp
    File: /home/wido/sw/gpaw/basis/gpaw-setups-0.9.20000/H.dzp.basis.gz
    Number of radial functions: 3
    Number of spherical harmonics: 5
      l=0, rc=6.4219 Bohr: 1s-sz confined orbital
      l=0, rc=3.6094 Bohr: 1s-dz split-valence wave
      l=1, rc=6.4219 Bohr: p-type Gaussian polarization

Reference energy: -935653.237240

Spin-paired calculation

Occupation numbers:
  Fermi-Dirac: width=0.1000 eV

Convergence criteria:
  Maximum total energy change: 0.0005 eV / electron
  Maximum integral of absolute density change: 0.0001 electrons
  Maximum integral of absolute eigenstate change: 4e-08 eV^2
  Maximum number of iterations: 99

Symmetries present (total): 1

  ( 1  0  0)
  ( 0  1  0)
  ( 0  0  1)

4 k-points: 2 x 2 x 1 Monkhorst-Pack grid
2 k-points in the irreducible part of the Brillouin zone
       k-points in crystal coordinates                weights
   0:     0.25000000   -0.25000000    0.00000000          2/4
   1:     0.25000000    0.25000000    0.00000000          2/4

Wave functions: Plane wave expansion
  Cutoff energy: 500.000 eV
  Number of coefficients (min, max): 94343, 94343
  Pulay-stress correction: 0.000000 eV/Ang^3 (de/decut=0.000000)
  Using FFTW library
  ScaLapack parameters: grid=1x1, blocksize=None
  Wavefunction extrapolation:
    Improved wavefunction reuse through dual PAW basis

Eigensolver
   Davidson(niter=2, smin=None, normalize=True)

Densities:
  Coarse grid: 54*80*125 grid
  Fine grid: 108*160*250 grid
  Total Charge: 0.000000

Density mixing:
  Method: separate
  Backend: pulay
  Linear mixing parameter: 0.05
  Mixing with 5 old densities
  Damping of long wave oscillations: 50

Hamiltonian:
  XC and Coulomb potentials evaluated on a 108*160*250 grid
  Using the PBE Exchange-Correlation functional

XC parameters: PBE with 2 nearest neighbor stencil

Total number of cores used: 20
Parallelization over k-points: 2
Domain decomposition: 1 x 2 x 5

Number of atoms: 105
Number of atomic orbitals: 1893
Number of bands in calculation: 500
Bands to converge: occupied states only
Number of valence electrons: 826

... initialized

Initializing position-dependent things.

Density initialized from atomic densities
Creating initial wave functions:
  500 bands from LCAO basis set

 |        O      O                 |
 |        |   Oi      O   H OO     |
 |      O | H  OV  O     OTi     Ti|
 |        | Oi     Oi     O V O    |
 |    O   |      O     OTiO   TiO  |
 |        TiO    O          O      |
 |        O     TiO  OTi O   Ti    |
 |  O     |O  OTii    Ti   OTiO  O |
 |     OTii  O OO    OO   O        |
 |      OO| O     OTii    Tii      |
 |   OTi  | Tii     O   OO     O   |
 |    O   |O     OTi     Oi        |
 |  Ti    TO   O  O    O     O     |
 |  O    O|     Ti    Ti           |
 |       Ti         O      O       |
 |        |  O                     |

Positions:
   0 O      9.976216    2.858233    7.393137    ( 0.0000,  0.0000,  0.0000)
   1 O      4.756852    0.969712    7.426553    ( 0.0000,  0.0000,  0.0000)
   2 Ti     2.977499    0.965811    8.324388    ( 0.0000,  0.0000,  0.0000)
   3 Ti     8.194414    2.799945    8.281978    ( 0.0000,  0.0000,  0.0000)
   4 Ti     0.620784    2.839791    8.988586    ( 0.0000,  0.0000,  0.0000)
   5 Ti     5.858715    0.936794    8.952141    ( 0.0000,  0.0000,  0.0000)
   6 O      1.070583    0.957871    8.944548    ( 0.0000,  0.0000,  0.0000)
   7 O      6.332133    2.843751    8.931186    ( 0.0000,  0.0000,  0.0000)
   8 O      9.252496    2.776042    9.819870    ( 0.0000,  0.0000,  0.0000)
   9 O      4.058145    0.977541    9.845844    ( 0.0000,  0.0000,  0.0000)
  10 O      7.755614    0.923678    8.321805    ( 0.0000,  0.0000,  0.0000)
  11 O      2.531474    2.891276    8.352118    ( 0.0000,  0.0000,  0.0000)
  12 O      1.085351    2.902444   10.998605    ( 0.0000,  0.0000,  0.0000)
  13 O      6.283784    0.926328   10.956752    ( 0.0000,  0.0000,  0.0000)
  14 Ti     4.396321    0.983278   11.921128    ( 0.0000,  0.0000,  0.0000)
  15 Ti     9.558667    2.821704   11.878976    ( 0.0000,  0.0000,  0.0000)
  16 Ti     2.013452    2.859483   12.521819    ( 0.0000,  0.0000,  0.0000)
  17 Ti     7.195833    0.938213   12.483741    ( 0.0000,  0.0000,  0.0000)
  18 O      2.560630    0.970630   12.709567    ( 0.0000,  0.0000,  0.0000)
  19 O      7.725580    2.853719   12.706635    ( 0.0000,  0.0000,  0.0000)
  20 O      0.379459    2.847794   13.400790    ( 0.0000,  0.0000,  0.0000)
  21 O      5.570105    1.038020   13.347938    ( 0.0000,  0.0000,  0.0000)
  22 O      9.168417    0.945929   11.928696    ( 0.0000,  0.0000,  0.0000)
  23 O      3.955231    2.917083   11.898315    ( 0.0000,  0.0000,  0.0000)
  24 O      9.990820    6.700489    7.347931    ( 0.0000,  0.0000,  0.0000)
  25 O      4.533567    4.787556    8.131791    ( 0.0000,  0.0000,  0.0000)
  26 Ti     2.734976    4.781982    7.960916    ( 0.0000,  0.0000,  0.0000)
  27 Ti     8.159565    6.716102    8.201907    ( 0.0000,  0.0000,  0.0000)
  28 Ti     0.644391    6.695757    9.088516    ( 0.0000,  0.0000,  0.0000)
  29 Ti     6.068164    4.766611    9.120597    ( 0.0000,  0.0000,  0.0000)
  30 O      1.031476    4.770664    8.928149    ( 0.0000,  0.0000,  0.0000)
  31 O      6.356063    6.707872    8.936695    ( 0.0000,  0.0000,  0.0000)
  32 O      9.237723    6.752310    9.760711    ( 0.0000,  0.0000,  0.0000)
  33 O      7.843387    4.773964    8.359031    ( 0.0000,  0.0000,  0.0000)
  34 O      2.516227    6.663697    8.340747    ( 0.0000,  0.0000,  0.0000)
  35 O      1.066019    6.540024   11.057676    ( 0.0000,  0.0000,  0.0000)
  36 O      5.859579    4.741069   10.931769    ( 0.0000,  0.0000,  0.0000)
  37 Ti     4.429667    4.791375   12.242813    ( 0.0000,  0.0000,  0.0000)
  38 Ti     9.421083    6.657000   11.674311    ( 0.0000,  0.0000,  0.0000)
  39 Ti     2.031425    6.632991   12.674957    ( 0.0000,  0.0000,  0.0000)
  40 Ti     7.395958    4.754877   12.927454    ( 0.0000,  0.0000,  0.0000)
  41 O      2.547033    4.733966   12.932369    ( 0.0000,  0.0000,  0.0000)
  42 O      7.632953    6.664048   12.533756    ( 0.0000,  0.0000,  0.0000)
  43 O      0.350926    6.682043   13.444912    ( 0.0000,  0.0000,  0.0000)
  44 O      5.658786    4.786468   13.556051    ( 0.0000,  0.0000,  0.0000)
  45 O      9.088786    4.774569   11.795200    ( 0.0000,  0.0000,  0.0000)
  46 O      3.948888    6.589758   11.815486    ( 0.0000,  0.0000,  0.0000)
  47 O      9.948766   10.527875    7.408214    ( 0.0000,  0.0000,  0.0000)
  48 O      4.801079    8.598520    7.385338    ( 0.0000,  0.0000,  0.0000)
  49 Ti     2.928556    8.600038    8.224939    ( 0.0000,  0.0000,  0.0000)
[...]
 |    O   |      O     OTi    TiO  |
 |        TiO     O         O      |
 |        O   O TiO  O O O   Ti    |
 |  O  O  |O  TiTi   Tii   OTiO  O |
 |      Tii  O OO    OO   O        |
 |      OO| O     OTii    Tii      |
 |   OTi  | Tii     O   OO     O   |
 |    O   |O     OTi     Oi        |
 |  Ti    TO   O  O    O     O     |
 |  O    O|     Ti    Ti           |
 |       Ti         O      O       |
 |        |  O                     |

[...]

Density initialized from wave functions
 |    O   O       O                |
 |        |   Oi      O  H  O      |
 |      O |H  O V  O     OTO V   Ti|
 |        | Oi     Oi     O    O   |
 |    O   |      O     OTi    TiO  |
 |        TiO     O         O      |
 |        O   O TiO  O O O  Tii    |
 |  O  O  |O  TiTi   Tii   O  O  O |
 |      Tii  O OO    OO   O        |
 |      OO| O     OTii    Tii      |
 |   OTi  | Tii     O   OO     O   |
 |    O   |O     OTi     Oi        |
 |  Ti    TO   O  O    O     O     |
 |  O    O|     Ti    Ti           |
 |       Ti         O      O       |
 |        |  O                     |

[...]

Density initialized from wave functions
 |    O   O       O                |
 |        |   Oi      O  H  O      |
 |      O |H  O V  O     OTO V   Ti|
 |        | Oi     Oi     O    O   |
 |    O   |      O     OTi    TiO  |
 |        TiO     O         O      |
 |        O   O TiO  O O O   Ti    |
 |  O  O  |O  TiTi   Tii   OTiO  O |
 |      Tii  O OO    OO   O        |
 |      OO| O     OTii    Tii      |
 |   OTi  | Tii     O   OO     O   |
 |    O   |O     OTi     Oi        |
 |  Ti    TO   O  O    O     O     |
 |  O    O|     Ti    Ti           |
 |       Ti         O      O       |
 |        |  O                     |

[...]

Density initialized from wave functions
 |    O   O       O                |
 |        |   Oi      O  H  O      |
 |      O |H  O V  O     OTO V   Ti|
 |        | Oi     Oi     O    O   |
 |    O   |      O     OTi    TiO  |
 |        TiO     O         O      |
 |        O     TiO  O O O  Tii    |
 |  O  O  |O  TiTi   Tii   O  O  O |
 |      Tii  O OO    OO   O        |
 |      OO| O     OTii    Tii      |
 |   OTi  | Tii     O   OO     O   |
 |    O   |O     OTi     Oi        |
 |  Ti    TO   O  O    O     O     |
 |  O    O|     Ti    Ti           |
 |       Ti         O      O       |
 |        |  O                     |

[...]

Density initialized from wave functions
 |    O   O       O                |
 |        |   Oi      O  H  O      |
 |      O |H  O V  O     OTO V   Ti|
 |        | Oi     Oi     O    O   |
 |    O   |      O     OTi    TiO  |
 |        TiO     O         O      |
 |        O     OTi  O O O   Ti    |
 |  O  O  |O  TiTi   Tii   OTiO  O |
 |      Tii  O OO    OO   O        |
 |      OO| O     OTii    Tii      |
 |   OTi  | Tii     O   OO     O   |
 |    O   |O     OTi     Oi        |
 |  Ti    TO   O  O    O     O     |
 |  O    O|     Ti    Ti           |
 |       Ti         O      O       |
 |        |  O                     |

[...]

Density initialized from wave functions
 |    O   O       O                |
 |        |   Oi      O  H  O      |
 |      O |H  O V  O     OTO V   Ti|
 |        | Oi     Oi     O    O   |
 |    O   |      O     OTi    TiO  |
 |        TiO     O         O      |
 |        O     OTi  O O O   Ti    |
 |  O  O  |O  TiTi   Tii   OTiO  O |
 |      Tii  O OO    OO   O        |
 |      OO| O     OTii    Tii      |
 |   OTi  | Tii     O   OO     O   |
 |    O   |O     OTi     Oi        |
 |  Ti    TO   O  O    O     O     |
 |  O    O|     Ti    Ti           |
 |       Ti         O      O       |
 |        |  O                     |

[...]

Density initialized from wave functions
 |    O   O      O                 |
 |        |   Oi      O  H  O      |
 |      O |H  O V  O     OTO V   Ti|
 |        | Oi     Oi     O    O   |
 |    O   |      O     OTi    TiO  |
 |        TiO     O         O      |
 |        O     TiO  O O O   Ti    |
 |  O  O  |O  TiTi   Tii   OTiO  O |
 |      Tii  O OO    OO   O        |
 |      OO| O     OTii    Tii      |
 |   OTi  | Tii     O   OO     O   |
 |    O   |O     OTi     Oi        |
 |  Ti    TO   O  O    O     O     |
 |  O    O|     Ti    Ti           |
 |       Ti         O      O       |
 |        |  O                     |

[...]

Density initialized from wave functions
 |    O   O      O                 |
 |        |   Oi      O  H  O      |
 |      O |H  O V  O     OTO V   Ti|
 |        | Oi     Oi     O    O   |
 |    O   |      O     OTi    TiO  |
 |        TiO     O         O      |
 |        O     TiO  O O O  Tii    |
 |  O  O  |O  TiTi   Tii   O  O  O |
 |      Tii  O OO    OO   O        |
 |      OO| O     OTii    Tii      |
 |   OTi  | Tii     O   OO     O   |
 |    O   |O     OTi     Oi        |
 |  Ti    TO   O  O    O     O     |
 |  O    O|     Ti    Ti           |
 |       Ti         O      O       |
 |        |  O                     |

[...]

Density initialized from wave functions
 |    O   O      O                 |
 |        |   Oi      O  H  O      |
 |      O |H  O V  O     OTO V   Ti|
 |        | Oi     Oi     O    O   |
 |    O   |      O     OTi    TiO  |
 |        TiO     O         O      |
 |        O     OTi  O O O  Tii    |
 |  O  O  |O  TiTi   Tii   O  O  O |
 |      Tii  O OO    OO   O        |
 |      OO| O     OTii    Tii      |
 |   OTi  | Tii     O   OO     O   |
 |    O   |O     OTi     Oi        |
 |  Ti    TO   O  O    O     O     |
 |  O    O|     Ti    Ti           |
 |       Ti         O      O       |
 |        |  O                     |

[...]

Forces in eV/Ang:
  0 O    -1.52483   -0.08582    1.24773
  1 O    -1.03416    0.03209    1.23685
  2 Ti    2.49205   -0.02951    1.12538
  3 Ti    2.76638    0.18899    0.68979
  4 Ti   -0.07195    0.11117   -1.41237
  5 Ti   -1.78232   -0.04490   -1.15029
  6 O     0.29681   -0.08647   -0.00952
  7 O     0.02068    0.58410   -0.08119
  8 O    -1.35856    0.02751    0.23091
  9 O    -0.71093   -0.03658   -0.09135
 10 O     0.16288    0.50473   -1.06147
 11 O     0.38574   -0.17506   -0.97942
 12 O    -0.01516   -0.00029   -0.01641
 13 O     0.01573    0.00342   -0.01739
 14 Ti   -0.02127    0.01024    0.00029
 15 Ti    0.00652    0.00238    0.00520
 16 Ti   -0.01983    0.01195    0.01942
 17 Ti   -0.00873    0.02945   -0.00865
 18 O     0.01061    0.01536    0.01582
 19 O    -0.01041   -0.06008   -0.02494
 20 O     0.02413   -0.00950   -0.00143
 21 O    -0.03102    0.00301    0.00710
 22 O     0.03274    0.05193   -0.01714
 23 O    -0.01369    0.00557   -0.01353
 24 O    -1.59766   -0.06807    2.11309
 25 O     0.42000   -0.03712    0.03987
 26 Ti   -0.47695    0.05497    0.68831
 27 Ti    3.77900    0.68730    0.30574
 28 Ti   -0.25275   -0.01585   -2.59445
 29 Ti   -0.17817    0.17982   -0.10715
 30 O     0.20627    0.00867   -0.00488
 31 O    -0.29550   -0.70163    0.03227
 32 O    -1.46612   -0.01502    1.02873
 33 O    -0.49412   -0.29632   -0.83681
 34 O     0.41596    0.12035   -1.04790
 35 O     0.03261   -0.00153    0.00875
 36 O     0.00993    0.00473    0.04876
 37 Ti   -0.02070   -0.00690    0.00648
 38 Ti    0.02876    0.02590    0.04283
 39 Ti   -0.02407    0.02910   -0.01495
 40 Ti   -0.06132    0.02011   -0.10694
 41 O     0.00158   -0.01098    0.00336
 42 O     0.00665   -0.00268    0.04815
 43 O     0.00599    0.02744   -0.00248
 44 O     0.03334    0.02497    0.00832
 45 O     0.01411    0.01147    0.01423
 46 O    -0.00113    0.00475   -0.02093
 47 O    -1.54615    0.03460    1.99205
 48 O    -0.98029   -0.04102    1.23634
 49 Ti    2.54373   -0.00878    1.01686
 50 Ti    3.84003   -0.24079    0.33131
 51 Ti   -1.19480    0.03682   -2.13869
 52 Ti   -1.36925    0.25602   -1.20430
 53 O     0.25975   -0.11486    0.15641
 54 O    -0.04039   -0.08666   -0.02136
 55 O    -0.96081   -0.04204    0.59492
 56 O    -0.89319    0.00995    0.06251
 57 O     0.11266   -0.12891   -0.84026
 58 O     0.26575    0.01183   -0.80441
 59 O    -0.03167    0.00255    0.03758
[...]
 90 O     0.02372   -0.02449   -0.01188
 91 O    -0.02095    0.00630   -0.06758
 92 O     0.00078   -0.01527    0.03588
 93 O    -0.01326    0.04706    0.02380
 94 O    -0.01621    0.06719    0.01103
 95 V     0.05663    0.01403    0.05425
 96 O    -0.02319    0.00550   -0.00275
 97 O    -0.03799    0.04429    0.02354
 98 O    -0.03302    0.01642   -0.01470
 99 V    -0.07252   -0.20691   -0.12183
100 O    -0.19855   -0.17351    0.24050
101 O    -0.08113    0.02947    0.02016
102 O     0.29371   -0.07512   -0.08204
103 H    -0.02952    0.04976   -0.04364
104 H     0.07582   -0.09668    0.08684

System changes: positions

Initializing position-dependent things.

Density initialized from wave functions
 |    O   O      O                 |
 |        |   Oi      O  H  O      |
 |      O |H  O V  O     OTO V   Ti|
 |        | Oi     Oi     O    O   |
 |    O   |      O     OTi    TiO  |
 |        TiO     O         O      |
 |        O     OTi  O O O  Tii    |
 |  O  O  |O  TiTi   Tii   O  O  O |
 |      Tii  O OO    OO   O        |
 |      OO| O     OTii    Tii      |
 |   OTi  | Tii     O   OO     O   |
 |    O   |O     OTi     Oi        |
 |  Ti    TO   O  O    O     O     |
 |  O    O|     Ti    Ti           |
 |       Ti         O      O       |
 |        |  O                     |

Positions:
   0 O      9.976216    2.858233    7.393137    ( 0.0000,  0.0000,  0.0000)
   1 O      4.756852    0.969712    7.426553    ( 0.0000,  0.0000,  0.0000)
   2 Ti     2.977499    0.965811    8.324388    ( 0.0000,  0.0000,  0.0000)
   3 Ti     8.194414    2.799945    8.281978    ( 0.0000,  0.0000,  0.0000)
   4 Ti     0.620784    2.839791    8.988586    ( 0.0000,  0.0000,  0.0000)
   5 Ti     5.858715    0.936794    8.952141    ( 0.0000,  0.0000,  0.0000)
   6 O      1.070583    0.957871    8.944548    ( 0.0000,  0.0000,  0.0000)
   7 O      6.332133    2.843751    8.931186    ( 0.0000,  0.0000,  0.0000)
   8 O      9.252496    2.776042    9.819870    ( 0.0000,  0.0000,  0.0000)
   9 O      4.058145    0.977541    9.845844    ( 0.0000,  0.0000,  0.0000)
  10 O      7.755614    0.923678    8.321805    ( 0.0000,  0.0000,  0.0000)
  11 O      2.531474    2.891276    8.352118    ( 0.0000,  0.0000,  0.0000)
  12 O      1.089374    2.889752   11.030650    ( 0.0000,  0.0000,  0.0000)
  13 O      6.266910    0.936982   10.965864    ( 0.0000,  0.0000,  0.0000)
  14 Ti     4.397982    0.970000   11.940400    ( 0.0000,  0.0000,  0.0000)
  15 Ti     9.588822    2.838629   11.967589    ( 0.0000,  0.0000,  0.0000)
  16 Ti     2.016956    2.854671   12.551543    ( 0.0000,  0.0000,  0.0000)
  17 Ti     7.199550    0.937639   12.481625    ( 0.0000,  0.0000,  0.0000)
  18 O      2.565538    0.982406   12.753663    ( 0.0000,  0.0000,  0.0000)
  19 O      7.699075    2.883185   12.645635    ( 0.0000,  0.0000,  0.0000)
  20 O      0.367604    2.855741   13.404701    ( 0.0000,  0.0000,  0.0000)
  21 O      5.573028    1.021448   13.355967    ( 0.0000,  0.0000,  0.0000)
  22 O      9.181755    0.949134   12.000022    ( 0.0000,  0.0000,  0.0000)
  23 O      3.965680    2.944658   11.885981    ( 0.0000,  0.0000,  0.0000)
  24 O      9.990820    6.700489    7.347931    ( 0.0000,  0.0000,  0.0000)
  25 O      4.533567    4.787556    8.131791    ( 0.0000,  0.0000,  0.0000)
  26 Ti     2.734976    4.781982    7.960916    ( 0.0000,  0.0000,  0.0000)
  27 Ti     8.159565    6.716102    8.201907    ( 0.0000,  0.0000,  0.0000)
  28 Ti     0.644391    6.695757    9.088516    ( 0.0000,  0.0000,  0.0000)
  29 Ti     6.068164    4.766611    9.120597    ( 0.0000,  0.0000,  0.0000)
  30 O      1.031476    4.770664    8.928149    ( 0.0000,  0.0000,  0.0000)
  31 O      6.356063    6.707872    8.936695    ( 0.0000,  0.0000,  0.0000)
  32 O      9.237723    6.752310    9.760711    ( 0.0000,  0.0000,  0.0000)
  33 O      7.843387    4.773964    8.359031    ( 0.0000,  0.0000,  0.0000)
  34 O      2.516227    6.663697    8.340747    ( 0.0000,  0.0000,  0.0000)
  35 O      1.032107    6.523995   11.085938    ( 0.0000,  0.0000,  0.0000)
  36 O      5.989904    4.761305   11.023634    ( 0.0000,  0.0000,  0.0000)
  37 Ti     4.363910    4.769832   12.338212    ( 0.0000,  0.0000,  0.0000)
  38 Ti     9.507913    6.690283   11.799821    ( 0.0000,  0.0000,  0.0000)
  39 Ti     2.064474    6.682995   12.635630    ( 0.0000,  0.0000,  0.0000)
  40 Ti     7.218779    4.762229   12.469284    ( 0.0000,  0.0000,  0.0000)
  41 O      2.515797    4.745892   12.997948    ( 0.0000,  0.0000,  0.0000)
  42 O      7.678339    6.638524   12.579961    ( 0.0000,  0.0000,  0.0000)
  43 O      0.247733    6.938947   13.411856    ( 0.0000,  0.0000,  0.0000)
  44 O      5.688609    4.777846   13.554220    ( 0.0000,  0.0000,  0.0000)
  45 O      9.144810    4.774858   11.859228    ( 0.0000,  0.0000,  0.0000)
  46 O      3.896543    6.554513   11.855929    ( 0.0000,  0.0000,  0.0000)
  47 O      9.948766   10.527875    7.408214    ( 0.0000,  0.0000,  0.0000)
  48 O      4.801079    8.598520    7.385338    ( 0.0000,  0.0000,  0.0000)
  49 Ti     2.928556    8.600038    8.224939    ( 0.0000,  0.0000,  0.0000)
  50 Ti     8.163046   10.570899    8.284136    ( 0.0000,  0.0000,  0.0000)
  51 Ti     0.692170   10.524457    9.134137    ( 0.0000,  0.0000,  0.0000)
  52 Ti     5.898248    8.628813    8.909431    ( 0.0000,  0.0000,  0.0000)
  53 O      1.092398    8.596554    8.983999    ( 0.0000,  0.0000,  0.0000)
  54 O      6.260853   10.527132    8.922339    ( 0.0000,  0.0000,  0.0000)
  55 O      9.226336   10.549273    9.823036    ( 0.0000,  0.0000,  0.0000)
  56 O      4.062725    8.522643    9.744956    ( 0.0000,  0.0000,  0.0000)
  57 O      7.763687    8.628435    8.276164    ( 0.0000,  0.0000,  0.0000)
  58 O      2.572933   10.493078    8.366415    ( 0.0000,  0.0000,  0.0000)
  59 O      1.053797   10.558360   11.082837    ( 0.0000,  0.0000,  0.0000)
[...]
  90 O      7.710488   14.340949   12.739372    ( 0.0000,  0.0000,  0.0000)
  91 O      0.424564   14.343803   13.412734    ( 0.0000,  0.0000,  0.0000)
  92 O      5.557394   12.402942   13.355077    ( 0.0000,  0.0000,  0.0000)
  93 O      9.189418   12.418560   12.010000    ( 0.0000,  0.0000,  0.0000)
  94 O      4.012206   14.359446   11.967459    ( 0.0000,  0.0000,  0.0000)
  95 V      3.983025    8.709203   14.720294    ( 0.0000,  0.0000,  0.0000)
  96 O      3.038314   10.138540   14.472297    ( 0.0000,  0.0000,  0.0000)
  97 O      2.896572    7.151954   14.608535    ( 0.0000,  0.0000,  0.0000)
  98 O      4.680035    8.779420   16.145794    ( 0.0000,  0.0000,  0.0000)
  99 V      9.613889    7.568214   14.998200    ( 0.0000,  0.0000,  0.0000)
 100 O      9.386093    6.176739   15.765827    ( 0.0000,  0.0000,  0.0000)
 101 O      7.906644    8.409182   14.574404    ( 0.0000,  0.0000,  0.0000)
 102 O     10.363811    8.571362   16.002872    ( 0.0000,  0.0000,  0.0000)
 103 H      7.590384    9.025759   15.261417    ( 0.0000,  0.0000,  0.0000)
 104 H      2.511648    6.775201   15.421827    ( 0.0000,  0.0000,  0.0000)

Unit cell:
           periodic     x           y           z      points  spacing
  1. axis:    yes   10.341746    0.000000    0.000000    54     0.1915
  2. axis:    yes   -0.000000   15.289380    0.000000    80     0.1911
  3. axis:    yes    0.000000    0.000000   23.497201   125     0.1880

  Lengths:  10.341746  15.289380  23.497201
  Angles:   90.000000  90.000000  90.000000

Effective grid spacing dv^(1/3) = 0.1902

                     log10-error:    total        iterations:
           time      wfs    density  energy       fermi  poisson
iter:   1  16:55:08  -4.46   +inf  -858.771064    3
iter:   2  16:55:39  -5.33  -4.14  -858.771678    3
iter:   3  16:56:10  -5.89  -4.21  -858.771379    2
iter:   4  16:56:40  -5.85  -4.30  -858.771432    2
iter:   5  16:57:12  -6.22  -4.43  -858.771388    2
iter:   6  16:57:43  -6.48  -4.55  -858.771379    2
iter:   7  16:58:14  -6.87  -4.68  -858.771430    2
iter:   8  16:58:45  -6.81  -4.82  -858.771385    2
iter:   9  16:59:17  -7.63  -4.98  -858.771366    2

Converged after 9 iterations.

Dipole moment: (-7.374912, 0.303457, -1.207665) |e|*Ang

Energy contributions relative to reference atoms: (reference = -935653.237240)

Kinetic:       +625.937278
Potential:     -791.268945
External:        +0.000000
XC:            -699.492901
Entropy (-ST):   -0.540324
Local:           +6.323364
Free energy:   -859.041528
Extrapolated:  -858.771366

Fermi level: -1.33190

Showing all kpts
 Kpt  Band  Eigenvalues  Occupancy
  0   411     -2.96550    1.00000
  0   412     -1.26131    0.33050
  0   413     -1.23493    0.27493
  0   414     -1.18135    0.18160

  1   411     -2.96556    1.00000
  1   412     -1.25528    0.31730
  1   413     -1.24140    0.28801
  1   414     -1.18170    0.18213