User:   siva@s84n43.grendel.cscaa.dk
Date:   Thu Feb 27 10:51:25 2020
Arch:   x86_64
Pid:    6649
Python: 3.6.3
gpaw:   /home/siva/gpaw-1.5.1/gpaw
_gpaw:  /home/siva/gpaw-1.5.1/build/bin.linux-x86_64-3.6/gpaw-python
ase:    /home/siva/env1.5/lib/python3.6/site-packages/ase (version 3.17.0)
numpy:  /home/siva/env1.5/lib/python3.6/site-packages/numpy (version 1.16.0)
scipy:  /home/siva/env1.5/lib/python3.6/site-packages/scipy (version 1.2.0)
units:  Angstrom and eV
cores:  100
Extra parameters: {'blacs': True}

Input parameters:
  basis: dzp
  kpts: [2 2 1]
  maxiter: 99
  mode: {ecut: 500.0,
         gammacentered: False,
         name: pw}
  xc: PBE

System changes: positions, numbers, cell, pbc, initial_charges, initial_magmoms

Initialize ...

O-setup:
  name: Oxygen
  id: 32ecd46bf208036f09c70b0ec9a88b78
  Z: 8
  valence: 6
  core: 2
  charge: 0.0
  file: /home/wido/sw/gpaw/basis/gpaw-setups-0.9.20000/O.PBE.gz
  cutoffs: 0.67(comp), 1.17(filt), 0.83(core), lmax=2
  valence states:
                energy  radius
    2s(2.00)   -23.961   0.688
    2p(4.00)    -9.029   0.598
    *s           3.251   0.688
    *p          18.182   0.598
    *d           0.000   0.619

  LCAO basis set for O:
    Name: dzp
    File: /home/wido/sw/gpaw/basis/gpaw-setups-0.9.20000/O.dzp.basis.gz
    Number of radial functions: 5
    Number of spherical harmonics: 13
      l=0, rc=4.3438 Bohr: 2s-sz confined orbital
      l=1, rc=5.3906 Bohr: 2p-sz confined orbital
      l=0, rc=2.2969 Bohr: 2s-dz split-valence wave
      l=1, rc=2.8906 Bohr: 2p-dz split-valence wave
      l=2, rc=5.3906 Bohr: d-type Gaussian polarization

Ti-setup:
  name: Titanium
  id: d282db07e62ae71292040bf25b25ccdd
  Z: 22
  valence: 12
  core: 10
  charge: 0.0
  file: /home/wido/sw/gpaw/basis/gpaw-setups-0.9.20000/Ti.PBE.gz
  cutoffs: 1.22(comp), 2.23(filt), 1.02(core), lmax=2
  valence states:
                energy  radius
    3s(2.00)   -62.623   1.270
    4s(2.00)    -4.466   1.270
    3p(6.00)   -38.862   1.058
    4p(0.00)    -1.466   1.058
    3d(2.00)    -4.258   1.058
    *d          22.953   1.058

  LCAO basis set for Ti:
    Name: dzp
    File: /home/wido/sw/gpaw/basis/gpaw-setups-0.9.20000/Ti.dzp.basis.gz
    Number of radial functions: 11
    Number of spherical harmonics: 29
      l=0, rc=3.4375 Bohr: 3s-sz confined orbital
      l=0, rc=9.9062 Bohr: 4s-sz confined orbital
      l=1, rc=3.8906 Bohr: 3p-sz confined orbital
      l=1, rc=13.1094 Bohr: 4p-sz confined orbital
      l=2, rc=6.6250 Bohr: 3d-sz confined orbital
      l=0, rc=2.1406 Bohr: 3s-dz split-valence wave
      l=0, rc=6.0156 Bohr: 4s-dz split-valence wave
      l=1, rc=2.3125 Bohr: 3p-dz split-valence wave
      l=1, rc=8.1094 Bohr: 4p-dz split-valence wave
      l=2, rc=3.8594 Bohr: 3d-dz split-valence wave
      l=1, rc=9.9062 Bohr: p-type Gaussian polarization

V-setup:
  name: Vanadium
  id: a8354638d66c808f8c867a10b63fd727
  Z: 23
  valence: 13
  core: 10
  charge: 0.0
  file: /home/wido/sw/gpaw/basis/gpaw-setups-0.9.20000/V.PBE.gz
  cutoffs: 1.19(comp), 2.14(filt), 0.96(core), lmax=2
  valence states:
                energy  radius
    3s(2.00)   -70.222   1.254
    4s(2.00)    -4.702   1.254
    3p(6.00)   -44.043   1.281
    4p(0.00)    -1.444   1.281
    3d(3.00)    -5.164   1.169
    *d          22.047   1.169

  LCAO basis set for V:
    Name: dzp
    File: /home/wido/sw/gpaw/basis/gpaw-setups-0.9.20000/V.dzp.basis.gz
    Number of radial functions: 11
    Number of spherical harmonics: 29
      l=0, rc=3.2656 Bohr: 3s-sz confined orbital
      l=0, rc=9.5312 Bohr: 4s-sz confined orbital
      l=1, rc=3.6719 Bohr: 3p-sz confined orbital
      l=1, rc=12.8750 Bohr: 4p-sz confined orbital
      l=2, rc=6.0938 Bohr: 3d-sz confined orbital
      l=0, rc=2.0625 Bohr: 3s-dz split-valence wave
      l=0, rc=5.7656 Bohr: 4s-dz split-valence wave
      l=1, rc=2.4062 Bohr: 3p-dz split-valence wave
      l=1, rc=7.8906 Bohr: 4p-dz split-valence wave
      l=2, rc=3.6562 Bohr: 3d-dz split-valence wave
      l=1, rc=9.5312 Bohr: p-type Gaussian polarization

H-setup:
  name: Hydrogen
  id: d65de229564ff8ea4db303e23b6d1ecf
  Z: 1
  valence: 1
  core: 0
  charge: 0.0
  file: /home/wido/sw/gpaw/basis/gpaw-setups-0.9.20000/H.PBE.gz
  cutoffs: 0.48(comp), 0.85(filt), 0.53(core), lmax=2
  valence states:
                energy  radius
    1s(1.00)    -6.494   0.476
    *s          20.717   0.476
    *p           0.000   0.476

  LCAO basis set for H:
    Name: dzp
    File: /home/wido/sw/gpaw/basis/gpaw-setups-0.9.20000/H.dzp.basis.gz
    Number of radial functions: 3
    Number of spherical harmonics: 5
      l=0, rc=6.4219 Bohr: 1s-sz confined orbital
      l=0, rc=3.6094 Bohr: 1s-dz split-valence wave
      l=1, rc=6.4219 Bohr: p-type Gaussian polarization

Reference energy: -935653.237240

Spin-paired calculation

Occupation numbers:
  Fermi-Dirac: width=0.1000 eV

Convergence criteria:
  Maximum total energy change: 0.0005 eV / electron
  Maximum integral of absolute density change: 0.0001 electrons
  Maximum integral of absolute eigenstate change: 4e-08 eV^2
  Maximum number of iterations: 99

Symmetries present (total): 1

  ( 1  0  0)
  ( 0  1  0)
  ( 0  0  1)

4 k-points: 2 x 2 x 1 Monkhorst-Pack grid
2 k-points in the irreducible part of the Brillouin zone
       k-points in crystal coordinates                weights
   0:     0.25000000   -0.25000000    0.00000000          2/4
   1:     0.25000000    0.25000000    0.00000000          2/4

Wave functions: Plane wave expansion
  Cutoff energy: 500.000 eV
  Number of coefficients (min, max): 94343, 94343
  Pulay-stress correction: 0.000000 eV/Ang^3 (de/decut=0.000000)
  Using FFTW library
  ScaLapack parameters: grid=1x1, blocksize=None
  Wavefunction extrapolation:
    Improved wavefunction reuse through dual PAW basis

Eigensolver
   Davidson(niter=2, smin=None, normalize=True)

Densities:
  Coarse grid: 54*80*125 grid
  Fine grid: 108*160*250 grid
  Total Charge: 0.000000

Density mixing:
  Method: separate
  Backend: pulay
  Linear mixing parameter: 0.05
  Mixing with 5 old densities
  Damping of long wave oscillations: 50

Hamiltonian:
  XC and Coulomb potentials evaluated on a 108*160*250 grid
  Using the PBE Exchange-Correlation functional

XC parameters: PBE with 2 nearest neighbor stencil

Total number of cores used: 20
Parallelization over k-points: 2
Domain decomposition: 1 x 2 x 5

Number of atoms: 105
Number of atomic orbitals: 1893
Number of bands in calculation: 500
Bands to converge: occupied states only
Number of valence electrons: 826

... initialized

Initializing position-dependent things.

Density initialized from atomic densities
Creating initial wave functions:
  500 bands from LCAO basis set

 |        O      O            O    |
 |        |  HOi      O  H  O      |
 |      O |    OV  O     OTiV    Ti|
 |    O   | Oi     Oi     O   O    |
 |    O   |      O     OTi    TiO  |
 |        TiO     O         O      |
 |        O     TiO  OTi O   Ti    |
 |  O  O  |O  TiTi    Ti   OTiO  O |
 |      Tii    OO    OO   O        |
 |      OO| OO    OTii    Tii      |
 |   O Ti | Tii     O   OO     O   |
 |    O   |O     OTi     Oi        |
 |  Ti    TO   O  O    O     O     |
 |  O    O|     Ti    Ti           |
 |       Ti         O      O       |
 |        |  O                     |

Positions:
   0 O      9.977970    2.852059    7.392606    ( 0.0000,  0.0000,  0.0000)
   1 O      4.762084    0.966549    7.421594    ( 0.0000,  0.0000,  0.0000)
   2 Ti     2.981352    0.964105    8.318874    ( 0.0000,  0.0000,  0.0000)
   3 Ti     8.199297    2.794388    8.277925    ( 0.0000,  0.0000,  0.0000)
   4 Ti     0.627970    2.840658    8.984382    ( 0.0000,  0.0000,  0.0000)
   5 Ti     5.860748    0.932964    8.947851    ( 0.0000,  0.0000,  0.0000)
   6 O      1.077139    0.959621    8.936512    ( 0.0000,  0.0000,  0.0000)
   7 O      6.331658    2.842814    8.930508    ( 0.0000,  0.0000,  0.0000)
   8 O      9.250884    2.788400    9.820127    ( 0.0000,  0.0000,  0.0000)
   9 O      4.061699    0.969746    9.842454    ( 0.0000,  0.0000,  0.0000)
  10 O      7.760281    0.921744    8.321645    ( 0.0000,  0.0000,  0.0000)
  11 O      2.544256    2.892711    8.356023    ( 0.0000,  0.0000,  0.0000)
  12 O      1.087261    2.899706   10.992789    ( 0.0000,  0.0000,  0.0000)
  13 O      6.282783    0.925403   10.951315    ( 0.0000,  0.0000,  0.0000)
  14 Ti     4.394168    0.981238   11.912743    ( 0.0000,  0.0000,  0.0000)
  15 Ti     9.562250    2.825128   11.881583    ( 0.0000,  0.0000,  0.0000)
  16 Ti     2.014333    2.856322   12.516275    ( 0.0000,  0.0000,  0.0000)
  17 Ti     7.193791    0.937274   12.477349    ( 0.0000,  0.0000,  0.0000)
  18 O      2.564931    0.972278   12.706337    ( 0.0000,  0.0000,  0.0000)
  19 O      7.717852    2.857657   12.687519    ( 0.0000,  0.0000,  0.0000)
  20 O      0.380828    2.844987   13.392482    ( 0.0000,  0.0000,  0.0000)
  21 O      5.566435    1.035635   13.340466    ( 0.0000,  0.0000,  0.0000)
  22 O      9.169262    0.948592   11.931410    ( 0.0000,  0.0000,  0.0000)
  23 O      3.955958    2.922871   11.877844    ( 0.0000,  0.0000,  0.0000)
  24 O      9.990893    6.702719    7.356201    ( 0.0000,  0.0000,  0.0000)
  25 O      4.554872    4.785234    8.081420    ( 0.0000,  0.0000,  0.0000)
  26 Ti     2.745077    4.782224    7.962897    ( 0.0000,  0.0000,  0.0000)
  27 Ti     8.173311    6.722223    8.213593    ( 0.0000,  0.0000,  0.0000)
  28 Ti     0.658090    6.694215    9.101516    ( 0.0000,  0.0000,  0.0000)
  29 Ti     6.073941    4.764853    9.094807    ( 0.0000,  0.0000,  0.0000)
  30 O      1.038940    4.772102    8.926664    ( 0.0000,  0.0000,  0.0000)
  31 O      6.353977    6.704952    8.937126    ( 0.0000,  0.0000,  0.0000)
  32 O      9.240183    6.738457    9.772682    ( 0.0000,  0.0000,  0.0000)
  33 O      7.836160    4.772465    8.333354    ( 0.0000,  0.0000,  0.0000)
  34 O      2.533874    6.661486    8.350280    ( 0.0000,  0.0000,  0.0000)
  35 O      1.067580    6.558131   11.061148    ( 0.0000,  0.0000,  0.0000)
  36 O      5.887439    4.742477   10.932672    ( 0.0000,  0.0000,  0.0000)
  37 Ti     4.414062    4.790217   12.246214    ( 0.0000,  0.0000,  0.0000)
  38 Ti     9.449869    6.660261   11.716523    ( 0.0000,  0.0000,  0.0000)
  39 Ti     2.037913    6.638307   12.700678    ( 0.0000,  0.0000,  0.0000)
  40 Ti     7.354475    4.748846   12.811182    ( 0.0000,  0.0000,  0.0000)
  41 O      2.545154    4.730236   12.938650    ( 0.0000,  0.0000,  0.0000)
  42 O      7.638658    6.655508   12.561072    ( 0.0000,  0.0000,  0.0000)
  43 O      0.350853    6.684349   13.446560    ( 0.0000,  0.0000,  0.0000)
  44 O      5.663807    4.785695   13.539442    ( 0.0000,  0.0000,  0.0000)
  45 O      9.093248    4.773473   11.800637    ( 0.0000,  0.0000,  0.0000)
  46 O      3.946827    6.580801   11.804472    ( 0.0000,  0.0000,  0.0000)
  47 O      9.956379   10.527000    7.394736    ( 0.0000,  0.0000,  0.0000)
  48 O      4.808312    8.597078    7.383618    ( 0.0000,  0.0000,  0.0000)
  49 Ti     2.933133    8.599664    8.220338    ( 0.0000,  0.0000,  0.0000)
[...]
 |    O   |O     OTi     Oi        |
 |  Ti    TO   O  O    O     O     |
 |  O    O|     Ti    Ti           |
 |       Ti         O      O       |
 |        |  O                     |

[...]

Density initialized from wave functions
 |        |                  O     |
 |        O       O                |
 |     O  |   Oi      O H   O V    |
 |      O H   O V  O      Oi     Ti|
 |        | Oi     Oi     O    O   |
 |    O   |      O     OTi    TiO  |
 |        TiO     O         O      |
 |        O     TiO  O O O  Tii    |
 |  O     |O  TiTi   Tii   O  O  O |
 |     OTii    OO    OO   O        |
 |      OO| OO    OTii    Tii      |
 |   O Ti | Tii     O   OO     O   |
 |    O   |O     OTi     Oi        |
 |  Ti    TO   O  O    O     O     |
 |  O    O|     Ti    Ti           |
 |       Ti         O      O       |
 |        |  O                     |

[...]

Density initialized from wave functions
 |        |                  O     |
 |        O       O                |
 |     O  |   Oi      O H   O V    |
 |      O H   O V  O      Oi     Ti|
 |        | Oi     Oi     O    O   |
 |    O   |      O     OTi    TiO  |
 |        TiO               O      |
 |        O     TiO  O O O  Tii    |
 |  O     |O  TiTi   Tii   O  O  O |
 |     OTii    OO    OO   O        |
 |      OO| OO    OTii    Tii      |
 |   O Ti | Tii     O   OO     O   |
 |    O   |O     OTi     Oi        |
 |  Ti    TO   O  O    O     O     |
 |  O    O|     Ti    Ti           |
 |       Ti         O      O       |
 |        |  O                     |

[...]

Density initialized from wave functions
 |        |                  O     |
 |        O       O                |
 |     O  |   Oi      O H   O V    |
 |      O H   O V  O      Oi     Ti|
 |        | Oi     Oi     O    O   |
 |    O   |      O     OTi    TiO  |
 |        TiO               O      |
 |        O     TiO  O O O  Tii    |
 |  O     |O  TiTi   Tii   O  O  O |
 |     OTii    OO    OO   O        |
 |      OO| OO    OTii    Tii      |
 |   O Ti | Tii     O   OO     O   |
 |    O   |O     OTi     Oi        |
 |  Ti    TO   O  O    O     O     |
 |  O    O|     Ti    Ti           |
 |       Ti         O      O       |
 |        |  O                     |

[...]

Density initialized from wave functions
 |        |                  O     |
 |        O       O                |
 |     O  |   Oi      O H   O V    |
 |      O H   O V  O      Oi     Ti|
 |        | Oi     Oi     O    O   |
 |        |      O     OTi    TiO  |
 |    O   TiO               O      |
 |        O     TiO  O O O  Tii    |
 |  O     |O  TiTi   Tii   O  O  O |
 |     OTii    OO    OO   O        |
 |      OO| OO    OTii    Tii      |
 |   O Ti | Tii     O   OO     O   |
 |    O   |O     OTi     Oi        |
 |  Ti    TO   O  O    O     O     |
 |  O    O|     Ti    Ti           |
 |       Ti         O      O       |
 |        |  O                     |

[...]

Density initialized from wave functions
 |        |                  O     |
 |        O       O                |
 |     O  |   Oi      O H   O V    |
 |      O H   O V  O      Oi     Ti|
 |        | Oi     Oi     O    O   |
 |        |      O     OTi    TiO  |
 |    O   TiO               O      |
 |        O     TiO  O O O  Tii    |
 |  O     |O  TiTi   Tii   O  O  O |
 |     OTii    OO    OO   O        |
 |      OO| OO    OTii    Tii      |
 |   O Ti | Tii     O   OO     O   |
 |    O   |O     OTi     Oi        |
 |  Ti    TO   O  O    O     O     |
 |  O    O|     Ti    Ti           |
 |       Ti         O      O       |
 |        |  O                     |

[...]

Density initialized from wave functions
 |        |                  O     |
 |        O       O                |
 |     O  |   Oi      O H   O V    |
 |      O H   O V  O      Oi     Ti|
 |        | Oi     Oi     O    O   |
 |        |      O     OTi    TiO  |
 |    O   TiO     O         O      |
 |        O     TiO  O O O  Tii    |
 |  O     |O  TiTi   Tii   O  O  O |
 |     OTii    OO    OO   O        |
 |      OO| OO    OTii    Tii      |
 |   O Ti | Tii     O   OO     O   |
 |    O   |O     OTi     Oi        |
 |  Ti    TO   O  O    O     O     |
 |  O    O|     Ti    Ti           |
 |       Ti         O      O       |
 |        |  O                     |

[...]

Density initialized from wave functions
 |        |                  O     |
 |        O       O                |
 |     O  |   Oi      O H   O V    |
 |      O H   O V  O      Oi     Ti|
 |        | Oi     Oi     O    O   |
 |        |      O     OTi    TiO  |
 |    O   TiO     O         O      |
 |        O     TiO  O O O  Tii    |
 |  O     |O  TiTi   Tii   O  O  O |
 |     OTii    OO    OO   O        |
 |      OO| OO    OTii    Tii      |
 |   O Ti | Tii     O   OO     O   |
 |    O   |O     OTi     Oi        |
 |  Ti    TO   O  O    O     O     |
 |  O    O|     Ti    Ti           |
 |       Ti         O      O       |
 |        |  O                     |

[...]

Density initialized from wave functions
 |        |                   O    |
 |        O       O                |
 |     O  |   Oi      O H   O V    |
 |      O H   O V  O     OTi     Ti|
 |        | Oi     Oi     O    O   |
 |        |      O     OTi    TiO  |
 |    O   TiO     O         O      |
 |        O   O TiO  O O O  Tii    |
 |  O     |O  TiTi   Tii   O  O  O |
 |     OTii    OO    OO   O        |
 |      OO| OO    OTii    Tii      |
 |   O Ti | Tii     O   OO     O   |
 |    O   |O     OTi     Oi        |
 |  Ti    TO   O  O    O     O     |
 |  O    O|     Ti    Ti           |
 |       Ti         O      O       |
 |        |  O                     |

[...]

Forces in eV/Ang:
  0 O    -1.51038   -0.08910    1.22523
  1 O    -1.03882    0.02170    1.21441
  2 Ti    2.49923   -0.01518    1.15108
  3 Ti    2.71558    0.28408    0.74889
  4 Ti   -0.11875    0.17121   -1.33639
  5 Ti   -1.76947    0.06262   -1.13479
  6 O     0.28773   -0.15441   -0.04645
  7 O     0.09637    0.43121   -0.15102
  8 O    -1.27439   -0.03515    0.11195
  9 O    -0.72817   -0.03847   -0.10469
 10 O     0.16164    0.49501   -1.07684
 11 O     0.34525   -0.19149   -0.94719
 12 O    -0.01206   -0.00824    0.00335
 13 O     0.00591   -0.01463   -0.00411
 14 Ti    0.00509   -0.02377    0.00072
 15 Ti    0.00362   -0.01068    0.00730
 16 Ti    0.00947   -0.00565   -0.00795
 17 Ti    0.01551   -0.02127    0.00546
 18 O     0.00141   -0.00761   -0.00241
 19 O    -0.00926   -0.00702   -0.00311
 20 O    -0.00288   -0.01384    0.00372
 21 O     0.00183   -0.01327    0.00463
 22 O     0.00801   -0.01587    0.00657
 23 O     0.00014   -0.02567    0.00521
 24 O    -1.71683   -0.06065    1.96667
 25 O     0.28953   -0.04129    0.11470
 26 Ti   -0.37284    0.09787    0.66490
 27 Ti    3.98868    0.53096    0.37343
 28 Ti   -0.46877   -0.03581   -2.50275
 29 Ti   -0.31950    0.18327   -0.25863
 30 O     0.21761   -0.16018   -0.10982
 31 O    -0.27899   -0.61666    0.04396
 32 O    -1.32039   -0.03849    0.61193
 33 O    -0.39439   -0.30794   -0.86258
 34 O     0.42264    0.13325   -1.07566
 35 O     0.01162   -0.00504    0.01417
 36 O    -0.00852   -0.01103   -0.01044
 37 Ti   -0.03316    0.00165    0.00627
 38 Ti   -0.02031   -0.03686   -0.00888
 39 Ti    0.05215   -0.01252   -0.02711
 40 Ti    0.00072    0.00721    0.00228
 41 O     0.00414    0.00720   -0.00258
 42 O     0.01617    0.00587   -0.00409
 43 O    -0.00076   -0.06378   -0.00646
 44 O     0.00334   -0.00372    0.01316
 45 O    -0.00607    0.00467    0.00622
 46 O     0.02713    0.00518    0.02101
 47 O    -1.40655    0.05766    2.08049
 48 O    -0.99736   -0.03362    1.23864
 49 Ti    2.54455   -0.10498    0.99243
 50 Ti    3.62886   -0.32218    0.38926
 51 Ti   -1.15316    0.00446   -2.10930
 52 Ti   -1.34254    0.21150   -1.21044
 53 O     0.25554    0.13750    0.18521
 54 O     0.02845   -0.01779   -0.06086
 55 O    -1.00016   -0.02424    0.89217
 56 O    -0.93755    0.02346    0.08047
 57 O     0.11694   -0.03088   -0.89028
 58 O     0.22063    0.05364   -0.77846
 59 O    -0.00372    0.00490   -0.01456
[...]
 90 O     0.00475   -0.00280    0.00843
 91 O     0.00028   -0.00876    0.01187
 92 O     0.01388   -0.01749    0.00556
 93 O     0.01287    0.00378    0.00057
 94 O    -0.00256    0.00350   -0.00868
 95 V     0.06083   -0.02339    0.05579
 96 O     0.00159    0.00246   -0.02054
 97 O    -0.05894   -0.05810    0.04473
 98 O    -0.01627   -0.02517   -0.06012
 99 V    -0.22159    0.58523    0.29018
100 O     0.18803    0.25568    0.06341
101 O     0.03330    0.03604    0.03900
102 O     0.04512    0.14200   -0.30257
103 H     0.01348   -0.05840   -0.00843
104 H    -0.05311    0.04419   -0.02003

System changes: positions

Initializing position-dependent things.

Density initialized from wave functions
 |        |                   O    |
 |        O      O                 |
 |     O  |   Oi      O H   O V    |
 |      O H   O V  O     OTi     Ti|
 |        | Oi     Oi     O    O   |
 |        |      O     OTi    TiO  |
 |    O   TiO     O         O      |
 |        O     TiO  O O O  Tii    |
 |  O     |O  TiTi   Tii   O  O  O |
 |     OTii    OO    OO   O        |
 |      OO| OO    OTii    Tii      |
 |   O Ti | Tii     O   OO     O   |
 |    O   |O     OTi     Oi        |
 |  Ti    TO   O  O    O     O     |
 |  O    O|     Ti    Ti           |
 |       Ti         O      O       |
 |        |  O                     |

Positions:
   0 O      9.977970    2.852059    7.392606    ( 0.0000,  0.0000,  0.0000)
   1 O      4.762084    0.966549    7.421594    ( 0.0000,  0.0000,  0.0000)
   2 Ti     2.981352    0.964105    8.318874    ( 0.0000,  0.0000,  0.0000)
   3 Ti     8.199297    2.794388    8.277925    ( 0.0000,  0.0000,  0.0000)
   4 Ti     0.627970    2.840658    8.984382    ( 0.0000,  0.0000,  0.0000)
   5 Ti     5.860748    0.932964    8.947851    ( 0.0000,  0.0000,  0.0000)
   6 O      1.077139    0.959621    8.936512    ( 0.0000,  0.0000,  0.0000)
   7 O      6.331658    2.842814    8.930508    ( 0.0000,  0.0000,  0.0000)
   8 O      9.250884    2.788400    9.820127    ( 0.0000,  0.0000,  0.0000)
   9 O      4.061699    0.969746    9.842454    ( 0.0000,  0.0000,  0.0000)
  10 O      7.760281    0.921744    8.321645    ( 0.0000,  0.0000,  0.0000)
  11 O      2.544256    2.892711    8.356023    ( 0.0000,  0.0000,  0.0000)
  12 O      1.091334    2.877841   11.026037    ( 0.0000,  0.0000,  0.0000)
  13 O      6.266651    0.923329   10.957918    ( 0.0000,  0.0000,  0.0000)
  14 Ti     4.393111    0.968005   11.939386    ( 0.0000,  0.0000,  0.0000)
  15 Ti     9.593122    2.812152   11.965324    ( 0.0000,  0.0000,  0.0000)
  16 Ti     2.020293    2.850755   12.548161    ( 0.0000,  0.0000,  0.0000)
  17 Ti     7.198910    0.926500   12.470373    ( 0.0000,  0.0000,  0.0000)
  18 O      2.565854    0.973661   12.752003    ( 0.0000,  0.0000,  0.0000)
  19 O      7.698410    2.853800   12.623686    ( 0.0000,  0.0000,  0.0000)
  20 O      0.375417    2.841758   13.404325    ( 0.0000,  0.0000,  0.0000)
  21 O      5.572561    1.006437   13.349626    ( 0.0000,  0.0000,  0.0000)
  22 O      9.188924    0.929204   11.995075    ( 0.0000,  0.0000,  0.0000)
  23 O      3.967982    2.933129   11.884579    ( 0.0000,  0.0000,  0.0000)
  24 O      9.990893    6.702719    7.356201    ( 0.0000,  0.0000,  0.0000)
  25 O      4.554872    4.785234    8.081420    ( 0.0000,  0.0000,  0.0000)
  26 Ti     2.745077    4.782224    7.962897    ( 0.0000,  0.0000,  0.0000)
  27 Ti     8.173311    6.722223    8.213593    ( 0.0000,  0.0000,  0.0000)
  28 Ti     0.658090    6.694215    9.101516    ( 0.0000,  0.0000,  0.0000)
  29 Ti     6.073941    4.764853    9.094807    ( 0.0000,  0.0000,  0.0000)
  30 O      1.038940    4.772102    8.926664    ( 0.0000,  0.0000,  0.0000)
  31 O      6.353977    6.704952    8.937126    ( 0.0000,  0.0000,  0.0000)
  32 O      9.240183    6.738457    9.772682    ( 0.0000,  0.0000,  0.0000)
  33 O      7.836160    4.772465    8.333354    ( 0.0000,  0.0000,  0.0000)
  34 O      2.533874    6.661486    8.350280    ( 0.0000,  0.0000,  0.0000)
  35 O      1.078318    6.515519   11.030518    ( 0.0000,  0.0000,  0.0000)
  36 O      5.968353    4.727297   10.990664    ( 0.0000,  0.0000,  0.0000)
  37 Ti     4.370390    4.772494   12.328438    ( 0.0000,  0.0000,  0.0000)
  38 Ti     9.552968    6.640303   11.830707    ( 0.0000,  0.0000,  0.0000)
  39 Ti     2.010097    6.660847   12.660129    ( 0.0000,  0.0000,  0.0000)
  40 Ti     7.215396    4.751191   12.405150    ( 0.0000,  0.0000,  0.0000)
  41 O      2.526533    4.737258   12.980627    ( 0.0000,  0.0000,  0.0000)
  42 O      7.633987    6.609219   12.466960    ( 0.0000,  0.0000,  0.0000)
  43 O      0.271959    6.803917   13.316815    ( 0.0000,  0.0000,  0.0000)
  44 O      5.714761    4.773948   13.526282    ( 0.0000,  0.0000,  0.0000)
  45 O      9.151506    4.739835   11.860178    ( 0.0000,  0.0000,  0.0000)
  46 O      3.953846    6.558886   11.845992    ( 0.0000,  0.0000,  0.0000)
  47 O      9.956379   10.527000    7.394736    ( 0.0000,  0.0000,  0.0000)
  48 O      4.808312    8.597078    7.383618    ( 0.0000,  0.0000,  0.0000)
  49 Ti     2.933133    8.599664    8.220338    ( 0.0000,  0.0000,  0.0000)
  50 Ti     8.157306   10.571179    8.263037    ( 0.0000,  0.0000,  0.0000)
  51 Ti     0.694366   10.527149    9.109537    ( 0.0000,  0.0000,  0.0000)
  52 Ti     5.901091    8.621872    8.909641    ( 0.0000,  0.0000,  0.0000)
  53 O      1.099280    8.593900    8.974255    ( 0.0000,  0.0000,  0.0000)
  54 O      6.269044   10.524360    8.925283    ( 0.0000,  0.0000,  0.0000)
  55 O      9.232658   10.528358    9.803583    ( 0.0000,  0.0000,  0.0000)
  56 O      4.066408    8.535836    9.742841    ( 0.0000,  0.0000,  0.0000)
  57 O      7.768527    8.626592    8.281214    ( 0.0000,  0.0000,  0.0000)
  58 O      2.579268   10.493538    8.363114    ( 0.0000,  0.0000,  0.0000)
  59 O      1.018194   10.571273   11.129564    ( 0.0000,  0.0000,  0.0000)
[...]
  90 O      7.716136   14.311980   12.721301    ( 0.0000,  0.0000,  0.0000)
  91 O      0.424945   14.333149   13.403710    ( 0.0000,  0.0000,  0.0000)
  92 O      5.554976   12.359756   13.357549    ( 0.0000,  0.0000,  0.0000)
  93 O      9.214084   12.377887   12.031990    ( 0.0000,  0.0000,  0.0000)
  94 O      4.008717   14.341349   11.982257    ( 0.0000,  0.0000,  0.0000)
  95 V      3.998510    8.673297   14.730554    ( 0.0000,  0.0000,  0.0000)
  96 O      2.999590   10.094321   14.486529    ( 0.0000,  0.0000,  0.0000)
  97 O      2.873984    7.164340   14.626238    ( 0.0000,  0.0000,  0.0000)
  98 O      4.677505    8.774678   16.163903    ( 0.0000,  0.0000,  0.0000)
  99 V      9.928421    8.910985   14.984010    ( 0.0000,  0.0000,  0.0000)
 100 O     10.846356    7.736216   15.651181    ( 0.0000,  0.0000,  0.0000)
 101 O      8.080236    8.406334   14.510234    ( 0.0000,  0.0000,  0.0000)
 102 O      9.581235    9.896866   16.197238    ( 0.0000,  0.0000,  0.0000)
 103 H      7.484690    8.746692   15.209124    ( 0.0000,  0.0000,  0.0000)
 104 H      2.087587    7.186358   15.258638    ( 0.0000,  0.0000,  0.0000)

Unit cell:
           periodic     x           y           z      points  spacing
  1. axis:    yes   10.341746    0.000000    0.000000    54     0.1915
  2. axis:    yes   -0.000000   15.289380    0.000000    80     0.1911
  3. axis:    yes    0.000000    0.000000   23.497201   125     0.1880

  Lengths:  10.341746  15.289380  23.497201
  Angles:   90.000000  90.000000  90.000000

Effective grid spacing dv^(1/3) = 0.1902

                     log10-error:    total        iterations:
           time      wfs    density  energy       fermi  poisson
iter:   1  16:55:09  -4.59   +inf  -858.581239    2
iter:   2  16:55:41  -5.48  -4.28  -858.581411    2
iter:   3  16:56:12  -6.08  -4.34  -858.581171    2
iter:   4  16:56:43  -5.82  -4.40  -858.581225    2
iter:   5  16:57:15  -6.70  -4.57  -858.581199    2
iter:   6  16:57:46  -6.78  -4.65  -858.581224    2
iter:   7  16:58:17  -6.74  -4.78  -858.581200    2
iter:   8  16:58:48  -7.43  -4.91  -858.581204    2

Converged after 8 iterations.

Dipole moment: (-3.799973, -1.385694, -1.301883) |e|*Ang

Energy contributions relative to reference atoms: (reference = -935653.237240)

Kinetic:       +621.029415
Potential:     -786.862788
External:        +0.000000
XC:            -698.822957
Entropy (-ST):   -0.543396
Local:           +6.346824
Free energy:   -858.852902
Extrapolated:  -858.581204

Fermi level: -1.34758

Showing all kpts
 Kpt  Band  Eigenvalues  Occupancy
  0   411     -3.04989    1.00000
  0   412     -1.27978    0.33671
  0   413     -1.24508    0.26406
  0   414     -1.19831    0.18353

  1   411     -3.04984    1.00000
  1   412     -1.27092    0.31721
  1   413     -1.25495    0.28368
  1   414     -1.19851    0.18382