User:   siva@s84n44.grendel.cscaa.dk
Date:   Thu Feb 27 10:51:25 2020
Arch:   x86_64
Pid:    9510
Python: 3.6.3
gpaw:   /home/siva/gpaw-1.5.1/gpaw
_gpaw:  /home/siva/gpaw-1.5.1/build/bin.linux-x86_64-3.6/gpaw-python
ase:    /home/siva/env1.5/lib/python3.6/site-packages/ase (version 3.17.0)
numpy:  /home/siva/env1.5/lib/python3.6/site-packages/numpy (version 1.16.0)
scipy:  /home/siva/env1.5/lib/python3.6/site-packages/scipy (version 1.2.0)
units:  Angstrom and eV
cores:  100
Extra parameters: {'blacs': True}

Input parameters:
  basis: dzp
  kpts: [2 2 1]
  maxiter: 99
  mode: {ecut: 500.0,
         gammacentered: False,
         name: pw}
  xc: PBE

System changes: positions, numbers, cell, pbc, initial_charges, initial_magmoms

Initialize ...

O-setup:
  name: Oxygen
  id: 32ecd46bf208036f09c70b0ec9a88b78
  Z: 8
  valence: 6
  core: 2
  charge: 0.0
  file: /home/wido/sw/gpaw/basis/gpaw-setups-0.9.20000/O.PBE.gz
  cutoffs: 0.67(comp), 1.17(filt), 0.83(core), lmax=2
  valence states:
                energy  radius
    2s(2.00)   -23.961   0.688
    2p(4.00)    -9.029   0.598
    *s           3.251   0.688
    *p          18.182   0.598
    *d           0.000   0.619

  LCAO basis set for O:
    Name: dzp
    File: /home/wido/sw/gpaw/basis/gpaw-setups-0.9.20000/O.dzp.basis.gz
    Number of radial functions: 5
    Number of spherical harmonics: 13
      l=0, rc=4.3438 Bohr: 2s-sz confined orbital
      l=1, rc=5.3906 Bohr: 2p-sz confined orbital
      l=0, rc=2.2969 Bohr: 2s-dz split-valence wave
      l=1, rc=2.8906 Bohr: 2p-dz split-valence wave
      l=2, rc=5.3906 Bohr: d-type Gaussian polarization

Ti-setup:
  name: Titanium
  id: d282db07e62ae71292040bf25b25ccdd
  Z: 22
  valence: 12
  core: 10
  charge: 0.0
  file: /home/wido/sw/gpaw/basis/gpaw-setups-0.9.20000/Ti.PBE.gz
  cutoffs: 1.22(comp), 2.23(filt), 1.02(core), lmax=2
  valence states:
                energy  radius
    3s(2.00)   -62.623   1.270
    4s(2.00)    -4.466   1.270
    3p(6.00)   -38.862   1.058
    4p(0.00)    -1.466   1.058
    3d(2.00)    -4.258   1.058
    *d          22.953   1.058

  LCAO basis set for Ti:
    Name: dzp
    File: /home/wido/sw/gpaw/basis/gpaw-setups-0.9.20000/Ti.dzp.basis.gz
    Number of radial functions: 11
    Number of spherical harmonics: 29
      l=0, rc=3.4375 Bohr: 3s-sz confined orbital
      l=0, rc=9.9062 Bohr: 4s-sz confined orbital
      l=1, rc=3.8906 Bohr: 3p-sz confined orbital
      l=1, rc=13.1094 Bohr: 4p-sz confined orbital
      l=2, rc=6.6250 Bohr: 3d-sz confined orbital
      l=0, rc=2.1406 Bohr: 3s-dz split-valence wave
      l=0, rc=6.0156 Bohr: 4s-dz split-valence wave
      l=1, rc=2.3125 Bohr: 3p-dz split-valence wave
      l=1, rc=8.1094 Bohr: 4p-dz split-valence wave
      l=2, rc=3.8594 Bohr: 3d-dz split-valence wave
      l=1, rc=9.9062 Bohr: p-type Gaussian polarization

V-setup:
  name: Vanadium
  id: a8354638d66c808f8c867a10b63fd727
  Z: 23
  valence: 13
  core: 10
  charge: 0.0
  file: /home/wido/sw/gpaw/basis/gpaw-setups-0.9.20000/V.PBE.gz
  cutoffs: 1.19(comp), 2.14(filt), 0.96(core), lmax=2
  valence states:
                energy  radius
    3s(2.00)   -70.222   1.254
    4s(2.00)    -4.702   1.254
    3p(6.00)   -44.043   1.281
    4p(0.00)    -1.444   1.281
    3d(3.00)    -5.164   1.169
    *d          22.047   1.169

  LCAO basis set for V:
    Name: dzp
    File: /home/wido/sw/gpaw/basis/gpaw-setups-0.9.20000/V.dzp.basis.gz
    Number of radial functions: 11
    Number of spherical harmonics: 29
      l=0, rc=3.2656 Bohr: 3s-sz confined orbital
      l=0, rc=9.5312 Bohr: 4s-sz confined orbital
      l=1, rc=3.6719 Bohr: 3p-sz confined orbital
      l=1, rc=12.8750 Bohr: 4p-sz confined orbital
      l=2, rc=6.0938 Bohr: 3d-sz confined orbital
      l=0, rc=2.0625 Bohr: 3s-dz split-valence wave
      l=0, rc=5.7656 Bohr: 4s-dz split-valence wave
      l=1, rc=2.4062 Bohr: 3p-dz split-valence wave
      l=1, rc=7.8906 Bohr: 4p-dz split-valence wave
      l=2, rc=3.6562 Bohr: 3d-dz split-valence wave
      l=1, rc=9.5312 Bohr: p-type Gaussian polarization

H-setup:
  name: Hydrogen
  id: d65de229564ff8ea4db303e23b6d1ecf
  Z: 1
  valence: 1
  core: 0
  charge: 0.0
  file: /home/wido/sw/gpaw/basis/gpaw-setups-0.9.20000/H.PBE.gz
  cutoffs: 0.48(comp), 0.85(filt), 0.53(core), lmax=2
  valence states:
                energy  radius
    1s(1.00)    -6.494   0.476
    *s          20.717   0.476
    *p           0.000   0.476

  LCAO basis set for H:
    Name: dzp
    File: /home/wido/sw/gpaw/basis/gpaw-setups-0.9.20000/H.dzp.basis.gz
    Number of radial functions: 3
    Number of spherical harmonics: 5
      l=0, rc=6.4219 Bohr: 1s-sz confined orbital
      l=0, rc=3.6094 Bohr: 1s-dz split-valence wave
      l=1, rc=6.4219 Bohr: p-type Gaussian polarization

Reference energy: -935653.237240

Spin-paired calculation

Occupation numbers:
  Fermi-Dirac: width=0.1000 eV

Convergence criteria:
  Maximum total energy change: 0.0005 eV / electron
  Maximum integral of absolute density change: 0.0001 electrons
  Maximum integral of absolute eigenstate change: 4e-08 eV^2
  Maximum number of iterations: 99

Symmetries present (total): 1

  ( 1  0  0)
  ( 0  1  0)
  ( 0  0  1)

4 k-points: 2 x 2 x 1 Monkhorst-Pack grid
2 k-points in the irreducible part of the Brillouin zone
       k-points in crystal coordinates                weights
   0:     0.25000000   -0.25000000    0.00000000          2/4
   1:     0.25000000    0.25000000    0.00000000          2/4

Wave functions: Plane wave expansion
  Cutoff energy: 500.000 eV
  Number of coefficients (min, max): 94343, 94343
  Pulay-stress correction: 0.000000 eV/Ang^3 (de/decut=0.000000)
  Using FFTW library
  ScaLapack parameters: grid=1x1, blocksize=None
  Wavefunction extrapolation:
    Improved wavefunction reuse through dual PAW basis

Eigensolver
   Davidson(niter=2, smin=None, normalize=True)

Densities:
  Coarse grid: 54*80*125 grid
  Fine grid: 108*160*250 grid
  Total Charge: 0.000000

Density mixing:
  Method: separate
  Backend: pulay
  Linear mixing parameter: 0.05
  Mixing with 5 old densities
  Damping of long wave oscillations: 50

Hamiltonian:
  XC and Coulomb potentials evaluated on a 108*160*250 grid
  Using the PBE Exchange-Correlation functional

XC parameters: PBE with 2 nearest neighbor stencil

Total number of cores used: 20
Parallelization over k-points: 2
Domain decomposition: 1 x 2 x 5

Number of atoms: 105
Number of atomic orbitals: 1893
Number of bands in calculation: 500
Bands to converge: occupied states only
Number of valence electrons: 826

... initialized

Initializing position-dependent things.

Density initialized from atomic densities
Creating initial wave functions:
  500 bands from LCAO basis set

 |        O      O            O    |
 |        |  HOi      O  H  O      |
 |      O |    OV  O     OTi V   Ti|
 |        | Oi     Oi     O    O   |
 |    O   |      O     OTi    TiO  |
 |        TiO     O         O      |
 |        OTi   TiO  O O O   Ti    |
 |  O  O  |O  TiTi   Tii   OTiO  O |
 |      Tii    OO    OO   O        |
 |      OO| OO    OTii    Tii      |
 |   O Ti | Tii     O   OO     O   |
 |    O   |O     OOTi    Oi        |
 |  Ti    TO   O  O    O     O     |
 |  O    O|     Ti    Ti           |
 |       Ti         O      O       |
 |        |  O                     |

Positions:
   0 O      9.980185    2.844521    7.396465    ( 0.0000,  0.0000,  0.0000)
   1 O      4.767913    0.962098    7.420913    ( 0.0000,  0.0000,  0.0000)
   2 Ti     2.985668    0.961254    8.317936    ( 0.0000,  0.0000,  0.0000)
   3 Ti     8.204778    2.787675    8.278517    ( 0.0000,  0.0000,  0.0000)
   4 Ti     0.635819    2.840589    8.985048    ( 0.0000,  0.0000,  0.0000)
   5 Ti     5.863284    0.927962    8.948246    ( 0.0000,  0.0000,  0.0000)
   6 O      1.084245    0.960152    8.932879    ( 0.0000,  0.0000,  0.0000)
   7 O      6.331546    2.840471    8.934380    ( 0.0000,  0.0000,  0.0000)
   8 O      9.249550    2.799874    9.824868    ( 0.0000,  0.0000,  0.0000)
   9 O      4.065677    0.960502    9.843539    ( 0.0000,  0.0000,  0.0000)
  10 O      7.765556    0.918512    8.326000    ( 0.0000,  0.0000,  0.0000)
  11 O      2.557918    2.892930    8.364612    ( 0.0000,  0.0000,  0.0000)
  12 O      1.089438    2.895689   10.990970    ( 0.0000,  0.0000,  0.0000)
  13 O      6.282146    0.923175   10.950022    ( 0.0000,  0.0000,  0.0000)
  14 Ti     4.392277    0.978368   11.909048    ( 0.0000,  0.0000,  0.0000)
  15 Ti     9.566328    2.828187   11.889166    ( 0.0000,  0.0000,  0.0000)
  16 Ti     2.015941    2.852610   12.515545    ( 0.0000,  0.0000,  0.0000)
  17 Ti     7.192003    0.935427   12.475621    ( 0.0000,  0.0000,  0.0000)
  18 O      2.569706    0.972506   12.707662    ( 0.0000,  0.0000,  0.0000)
  19 O      7.710064    2.860174   12.671697    ( 0.0000,  0.0000,  0.0000)
  20 O      0.382398    2.840866   13.388721    ( 0.0000,  0.0000,  0.0000)
  21 O      5.563010    1.031869   13.337501    ( 0.0000,  0.0000,  0.0000)
  22 O      9.170570    0.949875   11.938612    ( 0.0000,  0.0000,  0.0000)
  23 O      3.957099    2.927061   11.861017    ( 0.0000,  0.0000,  0.0000)
  24 O      9.991370    6.703855    7.368943    ( 0.0000,  0.0000,  0.0000)
  25 O      4.577087    4.781638    8.034107    ( 0.0000,  0.0000,  0.0000)
  26 Ti     2.755852    4.781525    7.969748    ( 0.0000,  0.0000,  0.0000)
  27 Ti     8.187997    6.727660    8.231071    ( 0.0000,  0.0000,  0.0000)
  28 Ti     0.672754    6.691601    9.120437    ( 0.0000,  0.0000,  0.0000)
  29 Ti     6.080332    4.762402    9.073394    ( 0.0000,  0.0000,  0.0000)
  30 O      1.046974    4.772222    8.929680    ( 0.0000,  0.0000,  0.0000)
  31 O      6.352271    6.700411    8.941918    ( 0.0000,  0.0000,  0.0000)
  32 O      9.243059    6.722817    9.788596    ( 0.0000,  0.0000,  0.0000)
  33 O      7.829286    4.769571    8.311283    ( 0.0000,  0.0000,  0.0000)
  34 O      2.552542    6.657923    8.364551    ( 0.0000,  0.0000,  0.0000)
  35 O      1.068937    6.575648   11.068066    ( 0.0000,  0.0000,  0.0000)
  36 O      5.916743    4.742379   10.937479    ( 0.0000,  0.0000,  0.0000)
  37 Ti     4.398080    4.788675   12.255099    ( 0.0000,  0.0000,  0.0000)
  38 Ti     9.477979    6.666454   11.768408    ( 0.0000,  0.0000,  0.0000)
  39 Ti     2.046897    6.642981   12.734544    ( 0.0000,  0.0000,  0.0000)
  40 Ti     7.313342    4.747841   12.699723    ( 0.0000,  0.0000,  0.0000)
  41 O      2.543344    4.724224   12.949404    ( 0.0000,  0.0000,  0.0000)
  42 O      7.644549    6.641734   12.588174    ( 0.0000,  0.0000,  0.0000)
  43 O      0.350376    6.685501   13.452856    ( 0.0000,  0.0000,  0.0000)
  44 O      5.669536    4.782472   13.525224    ( 0.0000,  0.0000,  0.0000)
  45 O      9.098142    4.769695   11.810032    ( 0.0000,  0.0000,  0.0000)
  46 O      3.944888    6.569938   11.797068    ( 0.0000,  0.0000,  0.0000)
  47 O      9.964595   10.524965    7.385076    ( 0.0000,  0.0000,  0.0000)
  48 O      4.815800    8.594439    7.385821    ( 0.0000,  0.0000,  0.0000)
  49 Ti     2.938692    8.598153    8.220795    ( 0.0000,  0.0000,  0.0000)
[...]
 |      Tii    OO    OO   O        |
 |      OO| OO    OTii    Tii      |
 |   O Ti | Tii     O   OO     O   |
 |    O   |O     OOTi    Oi        |
 |  Ti    TO   O  O    O     O     |
 |  O    O|     Ti    Ti           |
 |       Ti         O      O       |
 |        |  O                     |

[...]

Density initialized from wave functions
 |        O       O                |
 |        |   TO      O  H OO      |
 |      H |    OV  O      Oi  V  Ti|
 |        | TO     Oi     O    O   |
 |        |      O     OTi    OTi  |
 |        TiO    Ti         O      |
 |        OTi   O O  O O O  Tii    |
 |  O  O  |O  TiTi   Tii   O  O  O |
 |      Tii    OO    OO   O        |
 |      OO| OO    OTii    Tii      |
 |   O Ti | Tii     O   OO     O   |
 |    O   |O     OOTi    Oi        |
 |  Ti    TO   O  O    O     O     |
 |  O    O|     Ti    Ti           |
 |       Ti         O      O       |
 |        |  O                     |

[...]

Density initialized from wave functions
 |        O       O                |
 |        |   TO      O  H OO      |
 |      H |    OV  O      Oi  V  Ti|
 |        | TO     Oi     O    O   |
 |        |      O     OTi    OTi  |
 |        TiO               O      |
 |        OTi   OTO  O O O  Tii    |
 |  O  O  |O  TiTi   Tii   O  O  O |
 |      Tii    OO    OO   O        |
 |      OO| OO    OTii    Tii      |
 |   O Ti | Tii     O   OO     O   |
 |    O   |O     OOTi    Oi        |
 |  Ti    TO   O  O    O     O     |
 |  O    O|     Ti    Ti           |
 |       Ti         O      O       |
 |        |  O                     |

[...]

Density initialized from wave functions
 |        O       O                |
 |        |   TO      O  H OO      |
 |      H |    OV  O      Oi  V  Ti|
 |        | TO     Oi     O    O   |
 |        |      O     OTi    OTi  |
 |        TiO               O      |
 |        OTi   OTO  O O O  Tii    |
 |  O  O  |O  TiTi   Tii   O  O  O |
 |      Tii    OO    OO   O        |
 |      OO| OO    OTii    Tii      |
 |   O Ti | Tii     O   OO     O   |
 |    O   |O     OOTi    Oi        |
 |  Ti    TO   O  O    O     O     |
 |  O    O|     Ti    Ti           |
 |       Ti         O      O       |
 |        |  O                     |

[...]

Density initialized from wave functions
 |        O       O                |
 |        |   TO      O  H OO      |
 |      O |    OV  O      Oi  V  Ti|
 |      H | TO     Oi     O    O   |
 |        |      O     OTi    OTi  |
 |        TiO               O      |
 |        OTi   OTO  O O O  Tii    |
 |  O  O  |O  TiTi   Tii   O  O  O |
 |      Tii    OO    OO   O        |
 |      OO| OO    OTii    Tii      |
 |   O Ti | Tii     O   OO     O   |
 |    O   |O     OOTi    Oi        |
 |  Ti    TO   O  O    O     O     |
 |  O    O|     Ti    Ti           |
 |       Ti         O      O       |
 |        |  O                     |

[...]

Density initialized from wave functions
 |        O       O                |
 |        |   TO      O  H OO      |
 |      O |    OV  O      Oi  V  Ti|
 |      H | TO     Oi     O    O   |
 |        |      O     OTi    OTi  |
 |        TiO               O      |
 |        OTi   OTO  O O O  Tii    |
 |  O  O  |O  TiTi   Tii   O  O  O |
 |      Tii    OO    OO   O        |
 |      OO| OO    OTii    Tii      |
 |   O Ti | Tii     O   OO     O   |
 |    O   |O     OOTi    Oi        |
 |  Ti    TO   O  O    O     O     |
 |  O    O|     Ti    Ti           |
 |       Ti         O      O       |
 |        |  O                     |

[...]

Density initialized from wave functions
 |        O       O                |
 |        |   TO      O  H OO      |
 |      O |    OV  O      Oi  V  Ti|
 |      H | TO     Oi          O   |
 |        |      O     OTiO   OTi  |
 |        TiO               O      |
 |        OTi   OTO  O O O  Tii    |
 |  O  O  |O  TiTi   Tii   O  O  O |
 |      Tii    OO    OO   O        |
 |      OO| OO    OTii    Tii      |
 |   O Ti | Tii     O   OO     O   |
 |    O   |O     OOTi    Oi        |
 |  Ti    TO   O  O    O     O     |
 |  O    O|     Ti    Ti           |
 |       Ti         O      O       |
 |        |  O                     |

[...]

Density initialized from wave functions
 |        O       O                |
 |        |   TO      O  H OO      |
 |      O |    OV  O      Oi  V  Ti|
 |      H | TO     Oi          O   |
 |        |      O     OTiO   OTi  |
 |        OTi               O      |
 |        OTi   OTO  O O O  Tii    |
 |  O  O  |O  TiTi   Tii   O  O  O |
 |      Tii    OO    OO   O        |
 |      OO| OO    OTii    Tii      |
 |   O Ti | Tii     O   OO     O   |
 |    O   |O     OOTi    Oi        |
 |  Ti    TO   O  O    O     O     |
 |  O    O|     Ti    Ti           |
 |       Ti         O      O       |
 |        |  O                     |

[...]

Density initialized from wave functions
 |        O       O        O       |
 |        |   TO      O  H  O      |
 |     OO |    OV  O      Oi  V  Ti|
 |      H | TO     Oi          O   |
 |        |      O     OTiO   OTi  |
 |        OTi               O      |
 |        OTi   OTO  O O O  Tii    |
 |  O  O  |O  TiTi   Tii   O  O  O |
 |      Tii    OO    OO   O        |
 |      OO| OO    OTii    Tii      |
 |   O Ti | Tii     O   OO     O   |
 |    O   |O     OOTi    Oi        |
 |  Ti    TO   O  O    O     O     |
 |  O    O|     Ti    Ti           |
 |       Ti         O      O       |
 |        |  O                     |

[...]

Converged after 14 iterations.

Dipole moment: (21.945763, -0.074714, -1.050040) |e|*Ang

Energy contributions relative to reference atoms: (reference = -935653.237240)

Kinetic:       +622.826412
Potential:     -786.645722
External:        +0.000000
XC:            -697.885827
Entropy (-ST):   -0.483415
Local:           +6.458574
Free energy:   -855.729978
Extrapolated:  -855.488270

Fermi level: -1.38042

Showing all kpts
 Kpt  Band  Eigenvalues  Occupancy
  0   411     -3.09518    1.00000
  0   412     -1.34350    0.40875
  0   413     -1.29780    0.30445
  0   414     -1.17926    0.11800

  1   411     -3.09486    1.00000
  1   412     -1.34594    0.41465
  1   413     -1.29708    0.30292
  1   414     -1.17339    0.11202

Forces in eV/Ang:
  0 O    -1.50021   -0.07330    1.20456
  1 O    -1.05336    0.03524    1.21187
  2 Ti    2.56629   -0.09139    1.24546
  3 Ti    2.69102    0.36876    0.87678
  4 Ti   -0.17658    0.10469   -1.18905
  5 Ti   -1.77151    0.00380   -1.05798
  6 O     0.29877   -0.10007   -0.09833
  7 O     0.17750    0.36736   -0.13870
  8 O    -1.23359   -0.09075   -0.12527
  9 O    -0.74863    0.02147   -0.23907
 10 O     0.16113    0.56550   -1.11402
 11 O     0.29620   -0.15679   -0.89219
 12 O    -0.00443   -0.00127   -0.00370
 13 O    -0.00660    0.00972   -0.02714
 14 Ti    0.01943    0.00432    0.00836
 15 Ti   -0.01895    0.00047    0.00003
 16 Ti    0.03940    0.05723    0.03135
 17 Ti    0.00737    0.05673    0.01398
 18 O    -0.00321    0.01981   -0.01235
 19 O     0.02653   -0.00881   -0.01288
 20 O    -0.01500    0.05064    0.00587
 21 O    -0.01732   -0.02914   -0.00801
 22 O     0.00700    0.03199   -0.02924
 23 O    -0.02424   -0.00811   -0.00988
 24 O    -1.58591   -0.06861    2.05025
 25 O     0.11793   -0.05755    0.21996
 26 Ti   -0.14206    0.11217    0.59788
 27 Ti    3.92380    0.57451    0.50249
 28 Ti   -0.67973    0.13091   -1.73927
 29 Ti   -0.43591    0.35836   -0.03401
 30 O     0.22548   -0.10558   -0.02087
 31 O    -0.14596   -0.79891   -0.06056
 32 O    -1.38062   -0.04130    0.10723
 33 O    -0.29584   -0.37658   -0.87036
 34 O     0.34131    0.07090   -0.94685
 35 O    -0.02741    0.04550    0.08120
 36 O     0.01470   -0.01363   -0.06010
 37 Ti   -0.02981   -0.00015   -0.02217
 38 Ti    0.09744    0.03888   -0.08083
 39 Ti    0.08734    0.04389    0.24069
 40 Ti   -0.02735    0.00896   -0.05330
 41 O     0.03853   -0.00091   -0.00546
 42 O    -0.01867    0.03284   -0.07018
 43 O     0.08352    0.80092    0.10730
 44 O    -0.02705    0.01657   -0.07048
 45 O     0.04631    0.05429    0.14306
 46 O    -0.00494    0.04986    0.03429
 47 O    -1.43881    0.07743    1.89477
 48 O    -1.32519   -0.05624    1.02651
 49 Ti    2.76277    0.06489    1.10992
 50 Ti    3.99167   -0.43114    0.85811
 51 Ti   -1.48505   -0.01546   -1.92230
 52 Ti   -1.09973    0.21105   -1.01553
 53 O     0.29636   -0.06920    0.14850
 54 O     0.00985    0.27642   -0.05753
 55 O    -1.02817    0.14706    0.49340
 56 O    -1.16552   -0.04444   -0.46189
 57 O     0.17303   -0.15898   -1.04317
 58 O     0.33211   -0.03752   -0.89534
 59 O     0.08423    0.07554   -0.16200
[...]
 90 O     0.02136    0.02501    0.02743
 91 O     0.02737    0.02577   -0.02075
 92 O     0.02976   -0.00278    0.04429
 93 O    -0.02688    0.07841   -0.04367
 94 O     0.01969    0.03081    0.00586
 95 V    -0.21260   -0.27438    0.06575
 96 O    -0.29899   -0.10391    0.20788
 97 O    -0.01917   -0.18335   -0.00352
 98 O     0.07876   -0.29083    0.04296
 99 V     0.27786   -1.75175    0.23020
100 O    -0.75649   -1.33278   -0.01370
101 O    -0.11566   -0.02161    0.01655
102 O     1.20752   -0.84670    0.38834
103 H     0.29492   -0.33303   -0.15937
104 H    -0.92170    3.17456    0.56575

System changes: positions

Initializing position-dependent things.

Density initialized from wave functions
 |        O       O        O       |
 |        |   TO      O  H  O      |
 |     OO |    OV  O      Oi  V  Ti|
 |     H  | TO     Oi          O   |
 |        |      O     OTiO   OTi  |
 |        OTi               O      |
 |        OTi   OTO  O O O  Tii    |
 |  O  O  |O  TiTi   Tii   O  O  O |
 |      Tii    OO    OO   O        |
 |      OO| OO    OTii    Tii      |
 |   O Ti | Tii     O   OO     O   |
 |    O   |O     OOTi    Oi        |
 |  Ti    TO   O  O    O     O     |
 |  O    O|     Ti    Ti           |
 |       Ti         O      O       |
 |        |  O                     |

Positions:
   0 O      9.980185    2.844521    7.396465    ( 0.0000,  0.0000,  0.0000)
   1 O      4.767913    0.962098    7.420913    ( 0.0000,  0.0000,  0.0000)
   2 Ti     2.985668    0.961254    8.317936    ( 0.0000,  0.0000,  0.0000)
   3 Ti     8.204778    2.787675    8.278517    ( 0.0000,  0.0000,  0.0000)
   4 Ti     0.635819    2.840589    8.985048    ( 0.0000,  0.0000,  0.0000)
   5 Ti     5.863284    0.927962    8.948246    ( 0.0000,  0.0000,  0.0000)
   6 O      1.084245    0.960152    8.932879    ( 0.0000,  0.0000,  0.0000)
   7 O      6.331546    2.840471    8.934380    ( 0.0000,  0.0000,  0.0000)
   8 O      9.249550    2.799874    9.824868    ( 0.0000,  0.0000,  0.0000)
   9 O      4.065677    0.960502    9.843539    ( 0.0000,  0.0000,  0.0000)
  10 O      7.765556    0.918512    8.326000    ( 0.0000,  0.0000,  0.0000)
  11 O      2.557918    2.892930    8.364612    ( 0.0000,  0.0000,  0.0000)
  12 O      1.086752    2.881209   11.026778    ( 0.0000,  0.0000,  0.0000)
  13 O      6.268723    0.934172   10.962378    ( 0.0000,  0.0000,  0.0000)
  14 Ti     4.408363    0.976361   11.945263    ( 0.0000,  0.0000,  0.0000)
  15 Ti     9.572948    2.819953   11.968172    ( 0.0000,  0.0000,  0.0000)
  16 Ti     2.004425    2.850971   12.553620    ( 0.0000,  0.0000,  0.0000)
  17 Ti     7.210230    0.939389   12.474586    ( 0.0000,  0.0000,  0.0000)
  18 O      2.572167    0.993024   12.769877    ( 0.0000,  0.0000,  0.0000)
  19 O      7.697900    2.855400   12.644710    ( 0.0000,  0.0000,  0.0000)
  20 O      0.366433    2.856067   13.410351    ( 0.0000,  0.0000,  0.0000)
  21 O      5.577163    1.023457   13.355180    ( 0.0000,  0.0000,  0.0000)
  22 O      9.192176    0.947884   11.983936    ( 0.0000,  0.0000,  0.0000)
  23 O      3.965652    2.924418   11.862448    ( 0.0000,  0.0000,  0.0000)
  24 O      9.991370    6.703855    7.368943    ( 0.0000,  0.0000,  0.0000)
  25 O      4.577087    4.781638    8.034107    ( 0.0000,  0.0000,  0.0000)
  26 Ti     2.755852    4.781525    7.969748    ( 0.0000,  0.0000,  0.0000)
  27 Ti     8.187997    6.727660    8.231071    ( 0.0000,  0.0000,  0.0000)
  28 Ti     0.672754    6.691601    9.120437    ( 0.0000,  0.0000,  0.0000)
  29 Ti     6.080332    4.762402    9.073394    ( 0.0000,  0.0000,  0.0000)
  30 O      1.046974    4.772222    8.929680    ( 0.0000,  0.0000,  0.0000)
  31 O      6.352271    6.700411    8.941918    ( 0.0000,  0.0000,  0.0000)
  32 O      9.243059    6.722817    9.788596    ( 0.0000,  0.0000,  0.0000)
  33 O      7.829286    4.769571    8.311283    ( 0.0000,  0.0000,  0.0000)
  34 O      2.552542    6.657923    8.364551    ( 0.0000,  0.0000,  0.0000)
  35 O      1.025112    6.560175   11.149839    ( 0.0000,  0.0000,  0.0000)
  36 O      5.961471    4.745430   10.990283    ( 0.0000,  0.0000,  0.0000)
  37 Ti     4.376695    4.705795   12.347701    ( 0.0000,  0.0000,  0.0000)
  38 Ti     9.561852    6.630784   11.867274    ( 0.0000,  0.0000,  0.0000)
  39 Ti     2.296437    6.750554   12.702010    ( 0.0000,  0.0000,  0.0000)
  40 Ti     7.214495    4.789240   12.399932    ( 0.0000,  0.0000,  0.0000)
  41 O      2.547846    4.719928   13.030613    ( 0.0000,  0.0000,  0.0000)
  42 O      7.606106    6.623818   12.507554    ( 0.0000,  0.0000,  0.0000)
  43 O     -0.075408    6.703018   13.529234    ( 0.0000,  0.0000,  0.0000)
  44 O      5.712818    4.721785   13.538594    ( 0.0000,  0.0000,  0.0000)
  45 O      9.100109    4.722820   11.807906    ( 0.0000,  0.0000,  0.0000)
  46 O      3.908549    6.506142   11.808288    ( 0.0000,  0.0000,  0.0000)
  47 O      9.964595   10.524965    7.385076    ( 0.0000,  0.0000,  0.0000)
  48 O      4.815800    8.594439    7.385821    ( 0.0000,  0.0000,  0.0000)
  49 Ti     2.938692    8.598153    8.220795    ( 0.0000,  0.0000,  0.0000)
  50 Ti     8.151981   10.570147    8.246653    ( 0.0000,  0.0000,  0.0000)
  51 Ti     0.697144   10.528620    9.089260    ( 0.0000,  0.0000,  0.0000)
  52 Ti     5.904985    8.613528    8.916619    ( 0.0000,  0.0000,  0.0000)
  53 O      1.106624    8.590064    8.968799    ( 0.0000,  0.0000,  0.0000)
  54 O      6.277899   10.520684    8.932675    ( 0.0000,  0.0000,  0.0000)
  55 O      9.239512   10.505901    9.787166    ( 0.0000,  0.0000,  0.0000)
  56 O      4.070086    8.548203    9.743966    ( 0.0000,  0.0000,  0.0000)
  57 O      7.774125    8.623501    8.290909    ( 0.0000,  0.0000,  0.0000)
  58 O      2.586216   10.493002    8.364186    ( 0.0000,  0.0000,  0.0000)
  59 O      1.027777   10.618255   11.088344    ( 0.0000,  0.0000,  0.0000)
[...]
  90 O      7.737163   14.344507   12.733499    ( 0.0000,  0.0000,  0.0000)
  91 O      0.429942   14.362604   13.418897    ( 0.0000,  0.0000,  0.0000)
  92 O      5.590701   12.394274   13.348680    ( 0.0000,  0.0000,  0.0000)
  93 O      9.251248   12.425902   12.042865    ( 0.0000,  0.0000,  0.0000)
  94 O      4.009453   14.383303   11.972818    ( 0.0000,  0.0000,  0.0000)
  95 V      4.156707    8.782212   14.633778    ( 0.0000,  0.0000,  0.0000)
  96 O      3.204817   10.234776   14.326769    ( 0.0000,  0.0000,  0.0000)
  97 O      3.133645    7.344359   14.331103    ( 0.0000,  0.0000,  0.0000)
  98 O      4.808985    8.914070   16.082712    ( 0.0000,  0.0000,  0.0000)
  99 V     10.020520    7.734525   15.162206    ( 0.0000,  0.0000,  0.0000)
 100 O     11.389122    6.514380   15.719415    ( 0.0000,  0.0000,  0.0000)
 101 O      8.209469    8.870238   14.241473    ( 0.0000,  0.0000,  0.0000)
 102 O      8.784151    7.704587   16.180877    ( 0.0000,  0.0000,  0.0000)
 103 H      7.633139    9.155633   14.987417    ( 0.0000,  0.0000,  0.0000)
 104 H      1.303206    5.507689   15.475007    ( 0.0000,  0.0000,  0.0000)

Unit cell:
           periodic     x           y           z      points  spacing
  1. axis:    yes   10.341746    0.000000    0.000000    54     0.1915
  2. axis:    yes   -0.000000   15.289380    0.000000    80     0.1911
  3. axis:    yes    0.000000    0.000000   23.497201   125     0.1880

  Lengths:  10.341746  15.289380  23.497201
  Angles:   90.000000  90.000000  90.000000

Effective grid spacing dv^(1/3) = 0.1902

                     log10-error:    total        iterations:
           time      wfs    density  energy       fermi  poisson
iter:   1  16:55:09  -3.27   +inf  -855.431019    3
iter:   2  16:55:40  -4.12  -3.55  -855.424314    3
iter:   3  16:56:12  -4.79  -3.42  -855.422376    3
iter:   4  16:56:43  -5.23  -3.76  -855.423875    3
iter:   5  16:57:15  -4.89  -3.76  -855.421502    3
iter:   6  16:57:47  -5.53  -4.07  -855.422465    2
iter:   7  16:58:18  -5.85  -4.13  -855.422060    3
iter:   8  16:58:49  -6.24  -4.31  -855.421990    2
iter:   9  16:59:21  -6.48  -4.48  -855.422018    2
iter:  10  16:59:53  -6.65  -4.57  -855.421979    2
iter:  11  17:00:24  -7.04  -4.61  -855.422192    2
iter:  12  17:00:55  -7.23  -4.70  -855.421838    2