User:   siva@s84n45.grendel.cscaa.dk
Date:   Thu Feb 27 10:51:26 2020
Arch:   x86_64
Pid:    2090
Python: 3.6.3
gpaw:   /home/siva/gpaw-1.5.1/gpaw
_gpaw:  /home/siva/gpaw-1.5.1/build/bin.linux-x86_64-3.6/gpaw-python
ase:    /home/siva/env1.5/lib/python3.6/site-packages/ase (version 3.17.0)
numpy:  /home/siva/env1.5/lib/python3.6/site-packages/numpy (version 1.16.0)
scipy:  /home/siva/env1.5/lib/python3.6/site-packages/scipy (version 1.2.0)
units:  Angstrom and eV
cores:  100
Extra parameters: {'blacs': True}

Input parameters:
  basis: dzp
  kpts: [2 2 1]
  maxiter: 99
  mode: {ecut: 500.0,
         gammacentered: False,
         name: pw}
  xc: PBE

System changes: positions, numbers, cell, pbc, initial_charges, initial_magmoms

Initialize ...

O-setup:
  name: Oxygen
  id: 32ecd46bf208036f09c70b0ec9a88b78
  Z: 8
  valence: 6
  core: 2
  charge: 0.0
  file: /home/wido/sw/gpaw/basis/gpaw-setups-0.9.20000/O.PBE.gz
  cutoffs: 0.67(comp), 1.17(filt), 0.83(core), lmax=2
  valence states:
                energy  radius
    2s(2.00)   -23.961   0.688
    2p(4.00)    -9.029   0.598
    *s           3.251   0.688
    *p          18.182   0.598
    *d           0.000   0.619

  LCAO basis set for O:
    Name: dzp
    File: /home/wido/sw/gpaw/basis/gpaw-setups-0.9.20000/O.dzp.basis.gz
    Number of radial functions: 5
    Number of spherical harmonics: 13
      l=0, rc=4.3438 Bohr: 2s-sz confined orbital
      l=1, rc=5.3906 Bohr: 2p-sz confined orbital
      l=0, rc=2.2969 Bohr: 2s-dz split-valence wave
      l=1, rc=2.8906 Bohr: 2p-dz split-valence wave
      l=2, rc=5.3906 Bohr: d-type Gaussian polarization

Ti-setup:
  name: Titanium
  id: d282db07e62ae71292040bf25b25ccdd
  Z: 22
  valence: 12
  core: 10
  charge: 0.0
  file: /home/wido/sw/gpaw/basis/gpaw-setups-0.9.20000/Ti.PBE.gz
  cutoffs: 1.22(comp), 2.23(filt), 1.02(core), lmax=2
  valence states:
                energy  radius
    3s(2.00)   -62.623   1.270
    4s(2.00)    -4.466   1.270
    3p(6.00)   -38.862   1.058
    4p(0.00)    -1.466   1.058
    3d(2.00)    -4.258   1.058
    *d          22.953   1.058

  LCAO basis set for Ti:
    Name: dzp
    File: /home/wido/sw/gpaw/basis/gpaw-setups-0.9.20000/Ti.dzp.basis.gz
    Number of radial functions: 11
    Number of spherical harmonics: 29
      l=0, rc=3.4375 Bohr: 3s-sz confined orbital
      l=0, rc=9.9062 Bohr: 4s-sz confined orbital
      l=1, rc=3.8906 Bohr: 3p-sz confined orbital
      l=1, rc=13.1094 Bohr: 4p-sz confined orbital
      l=2, rc=6.6250 Bohr: 3d-sz confined orbital
      l=0, rc=2.1406 Bohr: 3s-dz split-valence wave
      l=0, rc=6.0156 Bohr: 4s-dz split-valence wave
      l=1, rc=2.3125 Bohr: 3p-dz split-valence wave
      l=1, rc=8.1094 Bohr: 4p-dz split-valence wave
      l=2, rc=3.8594 Bohr: 3d-dz split-valence wave
      l=1, rc=9.9062 Bohr: p-type Gaussian polarization

V-setup:
  name: Vanadium
  id: a8354638d66c808f8c867a10b63fd727
  Z: 23
  valence: 13
  core: 10
  charge: 0.0
  file: /home/wido/sw/gpaw/basis/gpaw-setups-0.9.20000/V.PBE.gz
  cutoffs: 1.19(comp), 2.14(filt), 0.96(core), lmax=2
  valence states:
                energy  radius
    3s(2.00)   -70.222   1.254
    4s(2.00)    -4.702   1.254
    3p(6.00)   -44.043   1.281
    4p(0.00)    -1.444   1.281
    3d(3.00)    -5.164   1.169
    *d          22.047   1.169

  LCAO basis set for V:
    Name: dzp
    File: /home/wido/sw/gpaw/basis/gpaw-setups-0.9.20000/V.dzp.basis.gz
    Number of radial functions: 11
    Number of spherical harmonics: 29
      l=0, rc=3.2656 Bohr: 3s-sz confined orbital
      l=0, rc=9.5312 Bohr: 4s-sz confined orbital
      l=1, rc=3.6719 Bohr: 3p-sz confined orbital
      l=1, rc=12.8750 Bohr: 4p-sz confined orbital
      l=2, rc=6.0938 Bohr: 3d-sz confined orbital
      l=0, rc=2.0625 Bohr: 3s-dz split-valence wave
      l=0, rc=5.7656 Bohr: 4s-dz split-valence wave
      l=1, rc=2.4062 Bohr: 3p-dz split-valence wave
      l=1, rc=7.8906 Bohr: 4p-dz split-valence wave
      l=2, rc=3.6562 Bohr: 3d-dz split-valence wave
      l=1, rc=9.5312 Bohr: p-type Gaussian polarization

H-setup:
  name: Hydrogen
  id: d65de229564ff8ea4db303e23b6d1ecf
  Z: 1
  valence: 1
  core: 0
  charge: 0.0
  file: /home/wido/sw/gpaw/basis/gpaw-setups-0.9.20000/H.PBE.gz
  cutoffs: 0.48(comp), 0.85(filt), 0.53(core), lmax=2
  valence states:
                energy  radius
    1s(1.00)    -6.494   0.476
    *s          20.717   0.476
    *p           0.000   0.476

  LCAO basis set for H:
    Name: dzp
    File: /home/wido/sw/gpaw/basis/gpaw-setups-0.9.20000/H.dzp.basis.gz
    Number of radial functions: 3
    Number of spherical harmonics: 5
      l=0, rc=6.4219 Bohr: 1s-sz confined orbital
      l=0, rc=3.6094 Bohr: 1s-dz split-valence wave
      l=1, rc=6.4219 Bohr: p-type Gaussian polarization

Reference energy: -935653.237240

Spin-paired calculation

Occupation numbers:
  Fermi-Dirac: width=0.1000 eV

Convergence criteria:
  Maximum total energy change: 0.0005 eV / electron
  Maximum integral of absolute density change: 0.0001 electrons
  Maximum integral of absolute eigenstate change: 4e-08 eV^2
  Maximum number of iterations: 99

Symmetries present (total): 1

  ( 1  0  0)
  ( 0  1  0)
  ( 0  0  1)

4 k-points: 2 x 2 x 1 Monkhorst-Pack grid
2 k-points in the irreducible part of the Brillouin zone
       k-points in crystal coordinates                weights
   0:     0.25000000   -0.25000000    0.00000000          2/4
   1:     0.25000000    0.25000000    0.00000000          2/4

Wave functions: Plane wave expansion
  Cutoff energy: 500.000 eV
  Number of coefficients (min, max): 94343, 94343
  Pulay-stress correction: 0.000000 eV/Ang^3 (de/decut=0.000000)
  Using FFTW library
  ScaLapack parameters: grid=1x1, blocksize=None
  Wavefunction extrapolation:
    Improved wavefunction reuse through dual PAW basis

Eigensolver
   Davidson(niter=2, smin=None, normalize=True)

Densities:
  Coarse grid: 54*80*125 grid
  Fine grid: 108*160*250 grid
  Total Charge: 0.000000

Density mixing:
  Method: separate
  Backend: pulay
  Linear mixing parameter: 0.05
  Mixing with 5 old densities
  Damping of long wave oscillations: 50

Hamiltonian:
  XC and Coulomb potentials evaluated on a 108*160*250 grid
  Using the PBE Exchange-Correlation functional

XC parameters: PBE with 2 nearest neighbor stencil

Total number of cores used: 20
Parallelization over k-points: 2
Domain decomposition: 1 x 2 x 5

Number of atoms: 105
Number of atomic orbitals: 1893
Number of bands in calculation: 500
Bands to converge: occupied states only
Number of valence electrons: 826

... initialized

Initializing position-dependent things.

Density initialized from atomic densities
Creating initial wave functions:
  500 bands from LCAO basis set

 |        O      O            O    |
 |        |   Hi      O  H  OV O   |
 |      O |    OV  O     OTi     Ti|
 |        | Oi     Oi     O    O   |
 |    O   |      O     OTi    TiO  |
 |        TiO               O      |
 |        OTi   TiO  O OiO   Ti    |
 |  O  O  |O  TiTi   Ti    OTiO  O |
 |      Tii    OO    OO   O        |
 |      OO| OO    OTii    Tii      |
 |   O Ti | Tii     O   OO     O   |
 |    O   |O     OOTi    Oi        |
 |  Ti    TO   O  O    O     O     |
 |  O    O|     Ti    Ti           |
 |       Ti         O      O       |
 |        |  O                     |

Positions:
   0 O      9.981627    2.835891    7.394815    ( 0.0000,  0.0000,  0.0000)
   1 O      4.772672    0.956313    7.415080    ( 0.0000,  0.0000,  0.0000)
   2 Ti     2.989016    0.956704    8.311490    ( 0.0000,  0.0000,  0.0000)
   3 Ti     8.209262    2.779445    8.273415    ( 0.0000,  0.0000,  0.0000)
   4 Ti     0.642387    2.838450    8.979866    ( 0.0000,  0.0000,  0.0000)
   5 Ti     5.864992    0.921288    8.943022    ( 0.0000,  0.0000,  0.0000)
   6 O      1.090173    0.959092    8.924269    ( 0.0000,  0.0000,  0.0000)
   7 O      6.330723    2.837142    8.932811    ( 0.0000,  0.0000,  0.0000)
   8 O      9.247781    2.808803    9.824244    ( 0.0000,  0.0000,  0.0000)
   9 O      4.068825    0.950342    9.839484    ( 0.0000,  0.0000,  0.0000)
  10 O      7.769774    0.913966    8.324746    ( 0.0000,  0.0000,  0.0000)
  11 O      2.569841    2.891634    8.367207    ( 0.0000,  0.0000,  0.0000)
  12 O      1.091100    2.890326   10.984446    ( 0.0000,  0.0000,  0.0000)
  13 O      6.281009    0.919510   10.943808    ( 0.0000,  0.0000,  0.0000)
  14 Ti     4.389995    0.973292   11.899874    ( 0.0000,  0.0000,  0.0000)
  15 Ti     9.569899    2.828312   11.890218    ( 0.0000,  0.0000,  0.0000)
  16 Ti     2.016366    2.846473   12.509097    ( 0.0000,  0.0000,  0.0000)
  17 Ti     7.189799    0.931265   12.468455    ( 0.0000,  0.0000,  0.0000)
  18 O      2.573484    0.971420   12.703602    ( 0.0000,  0.0000,  0.0000)
  19 O      7.701992    2.862314   12.652566    ( 0.0000,  0.0000,  0.0000)
  20 O      0.383551    2.835443   13.380055    ( 0.0000,  0.0000,  0.0000)
  21 O      5.559324    1.026811   13.329587    ( 0.0000,  0.0000,  0.0000)
  22 O      9.171086    0.949799   11.940090    ( 0.0000,  0.0000,  0.0000)
  23 O      3.957639    2.930163   11.840425    ( 0.0000,  0.0000,  0.0000)
  24 O      9.991171    6.703194    7.375660    ( 0.0000,  0.0000,  0.0000)
  25 O      4.597236    4.776691    7.985632    ( 0.0000,  0.0000,  0.0000)
  26 Ti     2.765029    4.778732    7.970356    ( 0.0000,  0.0000,  0.0000)
  27 Ti     8.201050    6.730463    8.240706    ( 0.0000,  0.0000,  0.0000)
  28 Ti     0.685359    6.687142    9.131194    ( 0.0000,  0.0000,  0.0000)
  29 Ti     6.085628    4.757586    9.047069    ( 0.0000,  0.0000,  0.0000)
  30 O      1.053778    4.770971    8.927304    ( 0.0000,  0.0000,  0.0000)
  31 O      6.349787    6.695178    8.941573    ( 0.0000,  0.0000,  0.0000)
  32 O      9.245076    6.707017    9.798899    ( 0.0000,  0.0000,  0.0000)
  33 O      7.822195    4.765508    8.285777    ( 0.0000,  0.0000,  0.0000)
  34 O      2.569098    6.653213    8.372532    ( 0.0000,  0.0000,  0.0000)
  35 O      1.070520    6.590039   11.070786    ( 0.0000,  0.0000,  0.0000)
  36 O      5.942956    4.740933   10.937410    ( 0.0000,  0.0000,  0.0000)
  37 Ti     4.382930    4.783946   12.257268    ( 0.0000,  0.0000,  0.0000)
  38 Ti     9.505435    6.664787   11.806428    ( 0.0000,  0.0000,  0.0000)
  39 Ti     2.051894    6.644151   12.756816    ( 0.0000,  0.0000,  0.0000)
  40 Ti     7.275065    4.738402   12.590339    ( 0.0000,  0.0000,  0.0000)
  41 O      2.541180    4.718193   12.954298    ( 0.0000,  0.0000,  0.0000)
  42 O      7.651243    6.637500   12.612964    ( 0.0000,  0.0000,  0.0000)
  43 O      0.350575    6.684975   13.453885    ( 0.0000,  0.0000,  0.0000)
  44 O      5.674035    4.778615   13.508104    ( 0.0000,  0.0000,  0.0000)
  45 O      9.101407    4.766307   11.814035    ( 0.0000,  0.0000,  0.0000)
  46 O      3.942772    6.559347   11.785249    ( 0.0000,  0.0000,  0.0000)
  47 O      9.971570   10.521332    7.371311    ( 0.0000,  0.0000,  0.0000)
  48 O      4.822853    8.590322    7.383584    ( 0.0000,  0.0000,  0.0000)
  49 Ti     2.942253    8.594968    8.214711    ( 0.0000,  0.0000,  0.0000)
[...]
 |  O  O  |O  TiTi   Ti   OO  O  O |
 |      Tii    OO    OO            |
 |      OO| OO    OTii    Tii      |
 |   O Ti | Tii     O   OO     O   |
 |    O   |O     OOTi    Oi        |
 |  Ti    TO   O  O    O     O     |
 |  O    O|     Ti    Ti           |
 |       Ti         O      O       |
 |        |  O                     |

[...]

Density initialized from wave functions
 |     O  O  H   O                 |
 |        |   Oi      O H   OOV    |
 |        |   O V  O     OTi     Ti|
 |      O | Oi     Oi     O    O   |
 |    O   |      O     OTi    TiO  |
 |        TiO               O      |
 |        OTi O TiO  O OiO  Tii    |
 |  O  O  |O  TiTi   Ti   OO  O  O |
 |      Tii    OO    OO            |
 |      OO| OO    OTii    Tii      |
 |   O Ti | Tii     O   OO     O   |
 |    O   |O     OOTi    Oi        |
 |  Ti    TO   O  O    O     O     |
 |  O    O|     Ti    Ti           |
 |       Ti         O      O       |
 |        |  O                     |

[...]

Density initialized from wave functions
 |     O  O  H   O                 |
 |        |   Oi      O H   OOV    |
 |        |   O V  O     OTi     Ti|
 |      O | Oi     Oi     O    O   |
 |    O   |      O     OTi    TiO  |
 |        TiO               O      |
 |        OTi O OTO  O OiO  Tii    |
 |  O  O  |O  TiTi   Ti   OO  O  O |
 |      Tii    OO    OO            |
 |      OO| OO    OTii    Tii      |
 |   O Ti | Tii     O   OO     O   |
 |    O   |O     OOTi    Oi        |
 |  Ti    TO   O  O    O     O     |
 |  O    O|     Ti    Ti           |
 |       Ti         O      O       |
 |        |  O                     |

[...]

Density initialized from wave functions
 |     O  O  H   O                 |
 |        |   Oi      O H   OOV    |
 |        |   O V  O     OTi     Ti|
 |      O | Oi     Oi     O    O   |
 |    O   |      O     OTi    TiO  |
 |        TiO               O      |
 |        OTi O OTO  O OiO  Tii    |
 |  O  O  |O  TiTi   Ti   OO  O  O |
 |      Tii    OO    OO            |
 |      OO| OO    OTii    Tii      |
 |   O Ti | Tii     O   OO     O   |
 |    O   |O     OOTi    Oi        |
 |  Ti    TO   O  O    O     O     |
 |  O    O|     Ti    Ti           |
 |       Ti         O      O       |
 |        |  O                     |

[...]

Density initialized from wave functions
 |     O  O  H   O                 |
 |        |   Oi      O H   OO     |
 |        |   O V  O     OTi  V  Ti|
 |      O | Oi     Oi     O    O   |
 |    O   |      O     OTi    TiO  |
 |        TiO               O      |
 |        OTi O OTO  O OiO  Tii    |
 |  O  O  |O  TiTi   Ti   OO  O  O |
 |      Tii    OO    OO            |
 |      OO| OO    OTii    Tii      |
 |   O Ti | Tii     O   OO     O   |
 |    O   |O     OOTi    Oi        |
 |  Ti    TO   O  O    O     O     |
 |  O    O|     Ti    Ti           |
 |       Ti         O      O       |
 |        |  O                     |

[...]

Density initialized from wave functions
 |     O  O  H   O                 |
 |        |   Oi      O H   OO     |
 |        |   O V  O     OTi  V  Ti|
 |      O | Oi     Oi     O    O   |
 |    O   |      O     OTi    TiO  |
 |        TiO               O      |
 |        OTi O OTO  O OiO  Tii    |
 |  O  O  |O  TiTi   Ti   OO  O  O |
 |      Tii    OO    OO            |
 |      OO| OO    OTii    Tii      |
 |   O Ti | Tii     O   OO     O   |
 |    O   |O     OOTi    Oi        |
 |  Ti    TO   O  O    O     O     |
 |  O    O|     Ti    Ti           |
 |       Ti         O      O       |
 |        |  O                     |

[...]

Density initialized from wave functions
 |     O  O  H   O                 |
 |        |   Oi      O H   OO     |
 |        |   O V  O     OTi  V  Ti|
 |      O | Oi     Oi     O    O   |
 |    O   |      O     OTi    TiO  |
 |        TiO     O         O      |
 |        OTi O OTi  O OiO  Tii    |
 |  O  O  |O  TiTi   Ti   OO  O  O |
 |      Tii    OO    OO            |
 |      OO| OO    OTii    Tii      |
 |   O Ti | Tii     O   OO     O   |
 |    O   |O     OOTi    Oi        |
 |  Ti    TO   O  O    O     O     |
 |  O    O|     Ti    Ti           |
 |       Ti         O      O       |
 |        |  O                     |

[...]

Density initialized from wave functions
 |     O  O  H   O                 |
 |        |   Oi      O H   OO     |
 |        |   O V  O     OTi  V  Ti|
 |      O | Oi     Oi     O    O   |
 |    O   |      O     OTi    TiO  |
 |        TiO     O         O      |
 |        OTi O OTi  O OiO  Tii    |
 |  O  O  |O  TiTi   Ti   OO  O  O |
 |      Tii    OO    OO            |
 |      OO| OO    OTii    Tii      |
 |   O Ti | Tii     O   OO     O   |
 |    O   |O     OOTi    Oi        |
 |  Ti    TO   O  O    O     O     |
 |  O    O|     Ti    Ti           |
 |       Ti         O      O       |
 |        |  O                     |

[...]

Density initialized from wave functions
 |     O  O  H   O                 |
 |        |   Oi      O H   OO     |
 |      O |   O V  O     OTi  V  Ti|
 |        | Oi     Oi     O    O   |
 |    O   |      O     OTi    TiO  |
 |        TiO     O         O      |
 |        OTi O OTi  O OiO  Tii    |
 |  O  O  |O  TiTi   Ti   OO  O  O |
 |      Tii    OO    OO            |
 |      OO| OO    OTii    Tii      |
 |   O Ti | Tii     O   OO     O   |
 |    O   |O     OOTi    Oi        |
 |  Ti    TO   O  O    O     O     |
 |  O    O|     Ti    Ti           |
 |       Ti         O      O       |
 |        |  O                     |

[...]

Forces in eV/Ang:
  0 O    -1.44538   -0.07008    1.19800
  1 O    -1.03556    0.02027    1.21715
  2 Ti    2.51920   -0.06761    1.21168
  3 Ti    2.59260    0.45339    0.85898
  4 Ti   -0.24002    0.08034   -1.18283
  5 Ti   -1.74137    0.15114   -1.07236
  6 O     0.28464   -0.10070   -0.14120
  7 O     0.18384    0.31335   -0.13050
  8 O    -1.13487    0.12762    0.02071
  9 O    -0.71858    0.05469   -0.15973
 10 O     0.13771    0.50578   -1.10502
 11 O     0.25068   -0.17216   -0.83872
 12 O    -0.01321    0.00391    0.02489
 13 O     0.00659    0.00674    0.00579
 14 Ti    0.00384    0.00481   -0.00540
 15 Ti   -0.01348   -0.02096    0.00753
 16 Ti   -0.00170   -0.00142   -0.00215
 17 Ti   -0.00251    0.00093   -0.00463
 18 O     0.00086    0.00112    0.00623
 19 O     0.00839   -0.01705    0.02194
 20 O     0.00412   -0.00072    0.01934
 21 O    -0.00129    0.00425    0.00563
 22 O    -0.00162   -0.01649   -0.00308
 23 O     0.01831   -0.00864   -0.00593
 24 O    -1.58691   -0.04455    2.10603
 25 O     0.01326   -0.02324    0.14463
 26 Ti    0.06767    0.05856    0.56099
 27 Ti    3.72444    0.33313    0.24958
 28 Ti   -0.58707   -0.03888   -1.94709
 29 Ti   -0.55630    0.18729   -0.03693
 30 O     0.14410   -0.01191   -0.02159
 31 O    -0.11042   -0.37165    0.02613
 32 O    -1.22389    0.06267    0.82691
 33 O    -0.16268   -0.26421   -0.80322
 34 O     0.25081    0.12224   -0.81208
 35 O     0.01440    0.06837   -0.01566
 36 O     0.01321   -0.00135    0.01420
 37 Ti    0.01340   -0.01868   -0.00162
 38 Ti   -0.01469   -0.08591   -0.03560
 39 Ti    0.05972   -0.03861   -0.05699
 40 Ti   -0.00663   -0.00687   -0.00942
 41 O     0.02849    0.00972    0.01652
 42 O    -0.04425   -0.02399   -0.03918
 43 O    -0.15151   -0.34903    0.02390
 44 O     0.00854   -0.01257    0.03359
 45 O    -0.02650   -0.02176   -0.12317
 46 O     0.00311   -0.01332    0.02121
 47 O    -1.55777    0.07958    1.85514
 48 O    -0.90677   -0.03787    1.27074
 49 Ti    2.61808    0.05470    1.12001
 50 Ti    3.95356   -0.39436    0.71242
 51 Ti   -1.27551    0.02361   -2.60866
 52 Ti   -1.48654    0.18633   -1.22224
 53 O     0.26191   -0.11347    0.19922
 54 O    -0.02532    0.10641    0.09963
 55 O    -1.09739    0.19539    0.72276
 56 O    -0.83950    0.05355    0.21490
 57 O     0.10077   -0.09596   -0.96594
 58 O     0.34540   -0.03215   -0.96330
 59 O    -0.03792   -0.03010    0.08511
[...]
 90 O    -0.00158    0.00558    0.00421
 91 O     0.00379    0.00580    0.00471
 92 O    -0.01223    0.02999   -0.00050
 93 O    -0.01214   -0.01749   -0.00671
 94 O     0.00267    0.00216   -0.00900
 95 V     0.02837    0.12336   -0.14073
 96 O     0.43017    0.10154   -0.25640
 97 O    -0.11683    0.16131    0.02091
 98 O    -0.10865    0.32950   -0.01754
 99 V    -0.04303   -0.37392   -0.04854
100 O     0.12690   -0.13557   -0.08720
101 O    -0.13280   -0.01503   -0.08314
102 O    -0.22521    0.01644   -0.02496
103 H    -0.01434    0.01778    0.02474
104 H     0.32463   -0.77244    0.02927

System changes: positions

Initializing position-dependent things.

Density initialized from wave functions
 |     O  O  H   O                 |
 |        |   Oi      O H   OO     |
 |      O |   O V  O     OTi  V  Ti|
 |        | Oi     Oi     O    O   |
 |    O   |      O     OTi    TiO  |
 |        TiO     O         O      |
 |        OTi O OTi  O OiO  Tii    |
 |  O  O  |O  TiTi   Ti   OO  O  O |
 |      Tii    OO    OO            |
 |      OO| OO    OTii    Tii      |
 |   O Ti | Tii     O   OO     O   |
 |    O   |O     OOTi    Oi        |
 |  Ti    TO   O  O    O     O     |
 |  O    O|     Ti    Ti           |
 |       Ti         O      O       |
 |        |  O                     |

Positions:
   0 O      9.981627    2.835891    7.394815    ( 0.0000,  0.0000,  0.0000)
   1 O      4.772672    0.956313    7.415080    ( 0.0000,  0.0000,  0.0000)
   2 Ti     2.989016    0.956704    8.311490    ( 0.0000,  0.0000,  0.0000)
   3 Ti     8.209262    2.779445    8.273415    ( 0.0000,  0.0000,  0.0000)
   4 Ti     0.642387    2.838450    8.979866    ( 0.0000,  0.0000,  0.0000)
   5 Ti     5.864992    0.921288    8.943022    ( 0.0000,  0.0000,  0.0000)
   6 O      1.090173    0.959092    8.924269    ( 0.0000,  0.0000,  0.0000)
   7 O      6.330723    2.837142    8.932811    ( 0.0000,  0.0000,  0.0000)
   8 O      9.247781    2.808803    9.824244    ( 0.0000,  0.0000,  0.0000)
   9 O      4.068825    0.950342    9.839484    ( 0.0000,  0.0000,  0.0000)
  10 O      7.769774    0.913966    8.324746    ( 0.0000,  0.0000,  0.0000)
  11 O      2.569841    2.891634    8.367207    ( 0.0000,  0.0000,  0.0000)
  12 O      1.084033    2.909498   11.022103    ( 0.0000,  0.0000,  0.0000)
  13 O      6.274081    0.940808   10.955602    ( 0.0000,  0.0000,  0.0000)
  14 Ti     4.399090    0.983010   11.936312    ( 0.0000,  0.0000,  0.0000)
  15 Ti     9.599866    2.894906   11.981064    ( 0.0000,  0.0000,  0.0000)
  16 Ti     2.030199    2.882754   12.538116    ( 0.0000,  0.0000,  0.0000)
  17 Ti     7.204810    0.993646   12.468171    ( 0.0000,  0.0000,  0.0000)
  18 O      2.571343    1.005739   12.742113    ( 0.0000,  0.0000,  0.0000)
  19 O      7.693795    2.927057   12.596395    ( 0.0000,  0.0000,  0.0000)
  20 O      0.389289    2.867985   13.406570    ( 0.0000,  0.0000,  0.0000)
  21 O      5.576305    1.076581   13.346046    ( 0.0000,  0.0000,  0.0000)
  22 O      9.191753    0.991770   11.998335    ( 0.0000,  0.0000,  0.0000)
  23 O      3.965069    2.971641   11.866197    ( 0.0000,  0.0000,  0.0000)
  24 O      9.991171    6.703194    7.375660    ( 0.0000,  0.0000,  0.0000)
  25 O      4.597236    4.776691    7.985632    ( 0.0000,  0.0000,  0.0000)
  26 Ti     2.765029    4.778732    7.970356    ( 0.0000,  0.0000,  0.0000)
  27 Ti     8.201050    6.730463    8.240706    ( 0.0000,  0.0000,  0.0000)
  28 Ti     0.685359    6.687142    9.131194    ( 0.0000,  0.0000,  0.0000)
  29 Ti     6.085628    4.757586    9.047069    ( 0.0000,  0.0000,  0.0000)
  30 O      1.053778    4.770971    8.927304    ( 0.0000,  0.0000,  0.0000)
  31 O      6.349787    6.695178    8.941573    ( 0.0000,  0.0000,  0.0000)
  32 O      9.245076    6.707017    9.798899    ( 0.0000,  0.0000,  0.0000)
  33 O      7.822195    4.765508    8.285777    ( 0.0000,  0.0000,  0.0000)
  34 O      2.569098    6.653213    8.372532    ( 0.0000,  0.0000,  0.0000)
  35 O      1.011417    6.571928   11.145426    ( 0.0000,  0.0000,  0.0000)
  36 O      5.987628    4.796145   10.974631    ( 0.0000,  0.0000,  0.0000)
  37 Ti     4.364936    4.806235   12.295570    ( 0.0000,  0.0000,  0.0000)
  38 Ti     9.592335    6.777786   11.883199    ( 0.0000,  0.0000,  0.0000)
  39 Ti     2.100572    6.743682   12.839202    ( 0.0000,  0.0000,  0.0000)
  40 Ti     7.216627    4.833778   12.415332    ( 0.0000,  0.0000,  0.0000)
  41 O      2.518308    4.773284   12.972139    ( 0.0000,  0.0000,  0.0000)
  42 O      7.654582    6.689815   12.607893    ( 0.0000,  0.0000,  0.0000)
  43 O      0.318801    7.237312   13.490664    ( 0.0000,  0.0000,  0.0000)
  44 O      5.696055    4.817028   13.507440    ( 0.0000,  0.0000,  0.0000)
  45 O      9.194544    4.847898   12.026173    ( 0.0000,  0.0000,  0.0000)
  46 O      3.907168    6.615126   11.841068    ( 0.0000,  0.0000,  0.0000)
  47 O      9.971570   10.521332    7.371311    ( 0.0000,  0.0000,  0.0000)
  48 O      4.822853    8.590322    7.383584    ( 0.0000,  0.0000,  0.0000)
  49 Ti     2.942253    8.594968    8.214711    ( 0.0000,  0.0000,  0.0000)
  50 Ti     8.146390   10.567872    8.225039    ( 0.0000,  0.0000,  0.0000)
  51 Ti     0.698810   10.528485    9.064092    ( 0.0000,  0.0000,  0.0000)
  52 Ti     5.907172    8.604172    8.913910    ( 0.0000,  0.0000,  0.0000)
  53 O      1.112935    8.584826    8.958651    ( 0.0000,  0.0000,  0.0000)
  54 O      6.285236   10.514871    8.934645    ( 0.0000,  0.0000,  0.0000)
  55 O      9.245250   10.483191    9.768210    ( 0.0000,  0.0000,  0.0000)
  56 O      4.073738    8.557930    9.742116    ( 0.0000,  0.0000,  0.0000)
  57 O      7.778285    8.619007    8.294600    ( 0.0000,  0.0000,  0.0000)
  58 O      2.592027   10.490499    8.360042    ( 0.0000,  0.0000,  0.0000)
  59 O      1.079085   10.643088   10.992287    ( 0.0000,  0.0000,  0.0000)
[...]
  90 O      7.723125   14.383824   12.756900    ( 0.0000,  0.0000,  0.0000)
  91 O      0.430552   14.369134   13.392581    ( 0.0000,  0.0000,  0.0000)
  92 O      5.561290   12.395278   13.396190    ( 0.0000,  0.0000,  0.0000)
  93 O      9.178018   12.468174   11.974745    ( 0.0000,  0.0000,  0.0000)
  94 O      4.018476   14.374182   11.999319    ( 0.0000,  0.0000,  0.0000)
  95 V      3.917176    8.570063   14.783357    ( 0.0000,  0.0000,  0.0000)
  96 O      2.758745   10.110601   14.643059    ( 0.0000,  0.0000,  0.0000)
  97 O      3.020885    7.095601   14.499213    ( 0.0000,  0.0000,  0.0000)
  98 O      4.654149    8.384507   16.176143    ( 0.0000,  0.0000,  0.0000)
  99 V      9.862403    8.161839   15.106938    ( 0.0000,  0.0000,  0.0000)
 100 O     10.539957    9.418493   15.847856    ( 0.0000,  0.0000,  0.0000)
 101 O      8.003090    8.576142   14.637518    ( 0.0000,  0.0000,  0.0000)
 102 O      9.813424    6.975425   16.182629    ( 0.0000,  0.0000,  0.0000)
 103 H      7.377113    8.148319   15.255316    ( 0.0000,  0.0000,  0.0000)
 104 H      2.476878   10.846526   15.238976    ( 0.0000,  0.0000,  0.0000)

Unit cell:
           periodic     x           y           z      points  spacing
  1. axis:    yes   10.341746    0.000000    0.000000    54     0.1915
  2. axis:    yes   -0.000000   15.289380    0.000000    80     0.1911
  3. axis:    yes    0.000000    0.000000   23.497201   125     0.1880

  Lengths:  10.341746  15.289380  23.497201
  Angles:   90.000000  90.000000  90.000000

Effective grid spacing dv^(1/3) = 0.1902

                     log10-error:    total        iterations:
           time      wfs    density  energy       fermi  poisson
iter:   1  16:55:09  -3.78   +inf  -858.214556    3
iter:   2  16:55:40  -4.66  -3.82  -858.210992    3
iter:   3  16:56:11  -5.27  -3.87  -858.211855    3
iter:   4  16:56:42  -5.29  -3.97  -858.211379    3
iter:   5  16:57:13  -5.36  -4.10  -858.211300    3
iter:   6  16:57:45  -5.61  -4.18  -858.211375    3
iter:   7  16:58:17  -6.10  -4.32  -858.211147    2
iter:   8  16:58:48  -6.21  -4.52  -858.211185    2
iter:   9  16:59:19  -6.45  -4.60  -858.211199    2
iter:  10  16:59:50  -6.94  -4.81  -858.211284    2
iter:  11  17:00:21  -7.48  -4.85  -858.211205    2

Converged after 11 iterations.

Dipole moment: (-4.938047, 2.607181, -1.216475) |e|*Ang

Energy contributions relative to reference atoms: (reference = -935653.237240)

Kinetic:       +610.672160
Potential:     -778.484370
External:        +0.000000
XC:            -696.493231
Entropy (-ST):   -0.538228
Local:           +6.363350
Free energy:   -858.480319
Extrapolated:  -858.211205

Fermi level: -1.34184

Showing all kpts
 Kpt  Band  Eigenvalues  Occupancy
  0   411     -2.83781    1.00000
  0   412     -1.28360    0.35837
  0   413     -1.23460    0.25494
  0   414     -1.18237    0.16872

  1   411     -2.83793    1.00000
  1   412     -1.27831    0.34631
  1   413     -1.24717    0.27956
  1   414     -1.17730    0.16173