User:   siva@s84n46.grendel.cscaa.dk
Date:   Thu Feb 27 10:51:25 2020
Arch:   x86_64
Pid:    5758
Python: 3.6.3
gpaw:   /home/siva/gpaw-1.5.1/gpaw
_gpaw:  /home/siva/gpaw-1.5.1/build/bin.linux-x86_64-3.6/gpaw-python
ase:    /home/siva/env1.5/lib/python3.6/site-packages/ase (version 3.17.0)
numpy:  /home/siva/env1.5/lib/python3.6/site-packages/numpy (version 1.16.0)
scipy:  /home/siva/env1.5/lib/python3.6/site-packages/scipy (version 1.2.0)
units:  Angstrom and eV
cores:  100
Extra parameters: {'blacs': True}

Input parameters:
  basis: dzp
  kpts: [2 2 1]
  maxiter: 99
  mode: {ecut: 500.0,
         gammacentered: False,
         name: pw}
  xc: PBE

System changes: positions, numbers, cell, pbc, initial_charges, initial_magmoms

Initialize ...

O-setup:
  name: Oxygen
  id: 32ecd46bf208036f09c70b0ec9a88b78
  Z: 8
  valence: 6
  core: 2
  charge: 0.0
  file: /home/wido/sw/gpaw/basis/gpaw-setups-0.9.20000/O.PBE.gz
  cutoffs: 0.67(comp), 1.17(filt), 0.83(core), lmax=2
  valence states:
                energy  radius
    2s(2.00)   -23.961   0.688
    2p(4.00)    -9.029   0.598
    *s           3.251   0.688
    *p          18.182   0.598
    *d           0.000   0.619

  LCAO basis set for O:
    Name: dzp
    File: /home/wido/sw/gpaw/basis/gpaw-setups-0.9.20000/O.dzp.basis.gz
    Number of radial functions: 5
    Number of spherical harmonics: 13
      l=0, rc=4.3438 Bohr: 2s-sz confined orbital
      l=1, rc=5.3906 Bohr: 2p-sz confined orbital
      l=0, rc=2.2969 Bohr: 2s-dz split-valence wave
      l=1, rc=2.8906 Bohr: 2p-dz split-valence wave
      l=2, rc=5.3906 Bohr: d-type Gaussian polarization

Ti-setup:
  name: Titanium
  id: d282db07e62ae71292040bf25b25ccdd
  Z: 22
  valence: 12
  core: 10
  charge: 0.0
  file: /home/wido/sw/gpaw/basis/gpaw-setups-0.9.20000/Ti.PBE.gz
  cutoffs: 1.22(comp), 2.23(filt), 1.02(core), lmax=2
  valence states:
                energy  radius
    3s(2.00)   -62.623   1.270
    4s(2.00)    -4.466   1.270
    3p(6.00)   -38.862   1.058
    4p(0.00)    -1.466   1.058
    3d(2.00)    -4.258   1.058
    *d          22.953   1.058

  LCAO basis set for Ti:
    Name: dzp
    File: /home/wido/sw/gpaw/basis/gpaw-setups-0.9.20000/Ti.dzp.basis.gz
    Number of radial functions: 11
    Number of spherical harmonics: 29
      l=0, rc=3.4375 Bohr: 3s-sz confined orbital
      l=0, rc=9.9062 Bohr: 4s-sz confined orbital
      l=1, rc=3.8906 Bohr: 3p-sz confined orbital
      l=1, rc=13.1094 Bohr: 4p-sz confined orbital
      l=2, rc=6.6250 Bohr: 3d-sz confined orbital
      l=0, rc=2.1406 Bohr: 3s-dz split-valence wave
      l=0, rc=6.0156 Bohr: 4s-dz split-valence wave
      l=1, rc=2.3125 Bohr: 3p-dz split-valence wave
      l=1, rc=8.1094 Bohr: 4p-dz split-valence wave
      l=2, rc=3.8594 Bohr: 3d-dz split-valence wave
      l=1, rc=9.9062 Bohr: p-type Gaussian polarization

V-setup:
  name: Vanadium
  id: a8354638d66c808f8c867a10b63fd727
  Z: 23
  valence: 13
  core: 10
  charge: 0.0
  file: /home/wido/sw/gpaw/basis/gpaw-setups-0.9.20000/V.PBE.gz
  cutoffs: 1.19(comp), 2.14(filt), 0.96(core), lmax=2
  valence states:
                energy  radius
    3s(2.00)   -70.222   1.254
    4s(2.00)    -4.702   1.254
    3p(6.00)   -44.043   1.281
    4p(0.00)    -1.444   1.281
    3d(3.00)    -5.164   1.169
    *d          22.047   1.169

  LCAO basis set for V:
    Name: dzp
    File: /home/wido/sw/gpaw/basis/gpaw-setups-0.9.20000/V.dzp.basis.gz
    Number of radial functions: 11
    Number of spherical harmonics: 29
      l=0, rc=3.2656 Bohr: 3s-sz confined orbital
      l=0, rc=9.5312 Bohr: 4s-sz confined orbital
      l=1, rc=3.6719 Bohr: 3p-sz confined orbital
      l=1, rc=12.8750 Bohr: 4p-sz confined orbital
      l=2, rc=6.0938 Bohr: 3d-sz confined orbital
      l=0, rc=2.0625 Bohr: 3s-dz split-valence wave
      l=0, rc=5.7656 Bohr: 4s-dz split-valence wave
      l=1, rc=2.4062 Bohr: 3p-dz split-valence wave
      l=1, rc=7.8906 Bohr: 4p-dz split-valence wave
      l=2, rc=3.6562 Bohr: 3d-dz split-valence wave
      l=1, rc=9.5312 Bohr: p-type Gaussian polarization

H-setup:
  name: Hydrogen
  id: d65de229564ff8ea4db303e23b6d1ecf
  Z: 1
  valence: 1
  core: 0
  charge: 0.0
  file: /home/wido/sw/gpaw/basis/gpaw-setups-0.9.20000/H.PBE.gz
  cutoffs: 0.48(comp), 0.85(filt), 0.53(core), lmax=2
  valence states:
                energy  radius
    1s(1.00)    -6.494   0.476
    *s          20.717   0.476
    *p           0.000   0.476

  LCAO basis set for H:
    Name: dzp
    File: /home/wido/sw/gpaw/basis/gpaw-setups-0.9.20000/H.dzp.basis.gz
    Number of radial functions: 3
    Number of spherical harmonics: 5
      l=0, rc=6.4219 Bohr: 1s-sz confined orbital
      l=0, rc=3.6094 Bohr: 1s-dz split-valence wave
      l=1, rc=6.4219 Bohr: p-type Gaussian polarization

Reference energy: -935653.237240

Spin-paired calculation

Occupation numbers:
  Fermi-Dirac: width=0.1000 eV

Convergence criteria:
  Maximum total energy change: 0.0005 eV / electron
  Maximum integral of absolute density change: 0.0001 electrons
  Maximum integral of absolute eigenstate change: 4e-08 eV^2
  Maximum number of iterations: 99

Symmetries present (total): 1

  ( 1  0  0)
  ( 0  1  0)
  ( 0  0  1)

4 k-points: 2 x 2 x 1 Monkhorst-Pack grid
2 k-points in the irreducible part of the Brillouin zone
       k-points in crystal coordinates                weights
   0:     0.25000000   -0.25000000    0.00000000          2/4
   1:     0.25000000    0.25000000    0.00000000          2/4

Wave functions: Plane wave expansion
  Cutoff energy: 500.000 eV
  Number of coefficients (min, max): 94343, 94343
  Pulay-stress correction: 0.000000 eV/Ang^3 (de/decut=0.000000)
  Using FFTW library
  ScaLapack parameters: grid=1x1, blocksize=None
  Wavefunction extrapolation:
    Improved wavefunction reuse through dual PAW basis

Eigensolver
   Davidson(niter=2, smin=None, normalize=True)

Densities:
  Coarse grid: 54*80*125 grid
  Fine grid: 108*160*250 grid
  Total Charge: 0.000000

Density mixing:
  Method: separate
  Backend: pulay
  Linear mixing parameter: 0.05
  Mixing with 5 old densities
  Damping of long wave oscillations: 50

Hamiltonian:
  XC and Coulomb potentials evaluated on a 108*160*250 grid
  Using the PBE Exchange-Correlation functional

XC parameters: PBE with 2 nearest neighbor stencil

Total number of cores used: 20
Parallelization over k-points: 2
Domain decomposition: 1 x 2 x 5

Number of atoms: 105
Number of atomic orbitals: 1893
Number of bands in calculation: 500
Bands to converge: occupied states only
Number of valence electrons: 826

... initialized

Initializing position-dependent things.

Density initialized from atomic densities
Creating initial wave functions:
  500 bands from LCAO basis set

 |        |                   O    |
 |        O   H  O          O      |
 |        |   Oi      O  H  OV     |
 |      O |    OV  O      Oi     Ti|
 |        | Oi     Oi     O    O   |
 |    O   |      O     OTi    TiO  |
 |        TiO     O    O    O      |
 |        OTi   TiO  O TiO  Tii    |
 |  O  O  |O  TiTi   Ti    O  O  O |
 |      Tii  O OO   OOO   O        |
 |      OO| O     OTii    Tii      |
 |   O Ti | Tii     O   OO     O   |
 |    O   |O     OOTi    Oi        |
 |  Ti    |Oi  O  O    O     O     |
 |  O    O|     Ti    Ti           |
 |       Ti         O      O       |
 |        |  O                     |

Positions:
   0 O      9.983327    2.826717    7.405169    ( 0.0000,  0.0000,  0.0000)
   1 O      4.777925    0.950160    7.421038    ( 0.0000,  0.0000,  0.0000)
   2 Ti     2.992771    0.951953    8.316961    ( 0.0000,  0.0000,  0.0000)
   3 Ti     8.214264    2.770866    8.280353    ( 0.0000,  0.0000,  0.0000)
   4 Ti     0.649548    2.836298    8.986825    ( 0.0000,  0.0000,  0.0000)
   5 Ti     5.867036    0.914346    8.949845    ( 0.0000,  0.0000,  0.0000)
   6 O      1.096680    0.957856    8.927281    ( 0.0000,  0.0000,  0.0000)
   7 O      6.330111    2.833354    8.943215    ( 0.0000,  0.0000,  0.0000)
   8 O      9.246073    2.818125    9.835439    ( 0.0000,  0.0000,  0.0000)
   9 O      4.072344    0.939541    9.847174    ( 0.0000,  0.0000,  0.0000)
  10 O      7.774441    0.909061    8.335563    ( 0.0000,  0.0000,  0.0000)
  11 O      2.582685    2.890105    8.382110    ( 0.0000,  0.0000,  0.0000)
  12 O      1.092947    2.884611   10.989468    ( 0.0000,  0.0000,  0.0000)
  13 O      6.279953    0.915543   10.949186    ( 0.0000,  0.0000,  0.0000)
  14 Ti     4.387837    0.968231   11.902654    ( 0.0000,  0.0000,  0.0000)
  15 Ti     9.573605    2.829177   11.904049    ( 0.0000,  0.0000,  0.0000)
  16 Ti     2.017258    2.840341   12.514755    ( 0.0000,  0.0000,  0.0000)
  17 Ti     7.187753    0.927357   12.473300    ( 0.0000,  0.0000,  0.0000)
  18 O      2.577706    0.970043   12.711453    ( 0.0000,  0.0000,  0.0000)
  19 O      7.693879    2.863674   12.644066    ( 0.0000,  0.0000,  0.0000)
  20 O      0.384852    2.829634   13.383022    ( 0.0000,  0.0000,  0.0000)
  21 O      5.555591    1.021353   13.333299    ( 0.0000,  0.0000,  0.0000)
  22 O      9.171866    0.949366   11.953730    ( 0.0000,  0.0000,  0.0000)
  23 O      3.958369    2.932930   11.830757    ( 0.0000,  0.0000,  0.0000)
  24 O      9.991155    6.702438    7.394704    ( 0.0000,  0.0000,  0.0000)
  25 O      4.618599    4.771370    7.946370    ( 0.0000,  0.0000,  0.0000)
  26 Ti     2.775043    4.775937    7.983327    ( 0.0000,  0.0000,  0.0000)
  27 Ti     8.215116    6.733658    8.263758    ( 0.0000,  0.0000,  0.0000)
  28 Ti     0.698994    6.682604    9.155328    ( 0.0000,  0.0000,  0.0000)
  29 Ti     6.091392    4.752901    9.031818    ( 0.0000,  0.0000,  0.0000)
  30 O      1.061195    4.769445    8.936857    ( 0.0000,  0.0000,  0.0000)
  31 O      6.347502    6.689180    8.953041    ( 0.0000,  0.0000,  0.0000)
  32 O      9.247434    6.689998    9.820961    ( 0.0000,  0.0000,  0.0000)
  33 O      7.814993    4.761002    8.270793    ( 0.0000,  0.0000,  0.0000)
  34 O      2.586823    6.648076    8.393045    ( 0.0000,  0.0000,  0.0000)
  35 O      1.072093    6.605217   11.085181    ( 0.0000,  0.0000,  0.0000)
  36 O      5.970569    4.739143   10.948407    ( 0.0000,  0.0000,  0.0000)
  37 Ti     4.367267    4.779732   12.272408    ( 0.0000,  0.0000,  0.0000)
  38 Ti     9.532534    6.667326   11.860999    ( 0.0000,  0.0000,  0.0000)
  39 Ti     2.058061    6.645968   12.793159    ( 0.0000,  0.0000,  0.0000)
  40 Ti     7.235711    4.732573   12.489152    ( 0.0000,  0.0000,  0.0000)
  41 O      2.539057    4.711373   12.971691    ( 0.0000,  0.0000,  0.0000)
  42 O      7.656983    6.626489   12.646944    ( 0.0000,  0.0000,  0.0000)
  43 O      0.350591    6.684283   13.466951    ( 0.0000,  0.0000,  0.0000)
  44 O      5.679085    4.774144   13.501324    ( 0.0000,  0.0000,  0.0000)
  45 O      9.105291    4.761570   11.830126    ( 0.0000,  0.0000,  0.0000)
  46 O      3.940489    6.547469   11.785031    ( 0.0000,  0.0000,  0.0000)
  47 O      9.979105   10.517481    7.368578    ( 0.0000,  0.0000,  0.0000)
  48 O      4.830067    8.585896    7.392832    ( 0.0000,  0.0000,  0.0000)
  49 Ti     2.946753    8.591607    8.221081    ( 0.0000,  0.0000,  0.0000)
[...]
 |  O    O|     Ti    Ti           |
 |       Ti         O      O       |
 |        |  O                     |

[...]

Density initialized from wave functions
 |        O  H    O          O O   |
 |        |   Oi      O H   O V    |
 |      O |   O V  O     OTi     Ti|
 |        | TO     Oi     O    O   |
 |    O   |      O     O      TiO  |
 |        TiO     O     Ti  O      |
 |        OTi   TiO  O OiO  Tii    |
 |  O  O  |O  TiTi   Ti    O  O  O |
 |      Tii  O OO   OOO   O        |
 |      OO| O     OTii    Tii      |
 |   O Ti | Tii     O   OO     O   |
 |    O   |O     OOTi    Oi        |
 |  Ti    |Oi  O  O    O     O     |
 |  O    O|     Ti    Ti           |
 |       Ti         O      O       |
 |        |  O                     |

[...]

Density initialized from wave functions
 |        O  H    O          O O   |
 |        |   Oi      O H   O V    |
 |      O |   O V  O     OTi     Ti|
 |        | TO     Oi     O    O   |
 |    O   |      O     OTi    TiO  |
 |        TiO     O         O      |
 |        OTi   TiO  O OiO  Tii    |
 |  O  O  |O  TiTi   Ti    O  O  O |
 |      Tii  O OO   OOO   O        |
 |      OO| O     OTii    Tii      |
 |   O Ti | Tii     O   OO     O   |
 |    O   |O     OOTi    Oi        |
 |  Ti    |Oi  O  O    O     O     |
 |  O    O|     Ti    Ti           |
 |       Ti         O      O       |
 |        |  O                     |

[...]

Density initialized from wave functions
 |        O  H    O          O O   |
 |        |   Oi      O H   O V    |
 |      O |   O V  O     OTi     Ti|
 |        | TO     Oi     O    O   |
 |    O   |      O     OTi    TiO  |
 |        TiO     O         O      |
 |        OTi   TiO  O OiO  Tii    |
 |  O  O  |O  TiTi   Ti    O  O  O |
 |      Tii  O OO   OOO   O        |
 |      OO| O     OTii    Tii      |
 |   O Ti | Tii     O   OO     O   |
 |    O   |O     OOTi    Oi        |
 |  Ti    |Oi  O  O    O     O     |
 |  O    O|     Ti    Ti           |
 |       Ti         O      O       |
 |        |  O                     |

[...]

Density initialized from wave functions
 |        |                  O     |
 |        O  H    O            O   |
 |        |   Oi      O H   O V    |
 |      O |   O V  O     OTi     Ti|
 |        | TO     Oi     O    O   |
 |    O   |      O     OTi    TiO  |
 |        TiO     O         O      |
 |        OTi   TiO  O OiO  Tii    |
 |  O  O  |O  TiTi   Ti    O  O  O |
 |      Tii  O OO   OOO   O        |
 |      OO| O     OTii    Tii      |
 |   O Ti | Tii     O   OO     O   |
 |    O   |O     OOTi    Oi        |
 |  Ti    |Oi  O  O    O     O     |
 |  O    O|     Ti    Ti           |
 |       Ti         O      O       |
 |        |  O                     |

[...]

Density initialized from wave functions
 |        |                  O     |
 |     O  O  H   O                 |
 |        |   Oi      O H   O V    |
 |      O |   O V  O     OTi     Ti|
 |        | TO     Oi     O    O   |
 |    O   |      O     OTi    TiO  |
 |        TiO     O         O      |
 |        OTi   TiO  O OiO  Tii    |
 |  O  O  |O  TiTi   Ti    O  O  O |
 |      Tii  O OO   OOO   O        |
 |      OO| O     OTii    Tii      |
 |   O Ti | Tii     O   OO     O   |
 |    O   |O     OOTi    Oi        |
 |  Ti    |Oi  O  O    O     O     |
 |  O    O|     Ti    Ti           |
 |       Ti         O      O       |
 |        |  O                     |

[...]

Density initialized from wave functions
 |        |                  O     |
 |     O  O  H   O                 |
 |        |   Oi      O H   O V    |
 |      O |   O V  O     OTi     Ti|
 |        | Oi     Oi     O    O   |
 |    O   |      O     OTi    TiO  |
 |        TiO     O         O      |
 |        OTi   TiO  O OiO  Tii    |
 |  O  O  |O  TiTi   Ti    O  O  O |
 |      Tii  O OO   OOO   O        |
 |      OO| O     OTii    Tii      |
 |   O Ti | Tii     O   OO     O   |
 |    O   |O     OOTi    Oi        |
 |  Ti    |Oi  O  O    O     O     |
 |  O    O|     Ti    Ti           |
 |       Ti         O      O       |
 |        |  O                     |

[...]

Density initialized from wave functions
 |        |                   O    |
 |    O   O  H   O                 |
 |        |   Oi      O H   O V    |
 |      O |   O V  O     OTi     Ti|
 |        | Oi     Oi     O    O   |
 |    O   |      O     OTi    TiO  |
 |        TiO     O    O    O      |
 |        OTi   TiO  O TiO  Tii    |
 |  O  O  |O  TiTi   Ti    O  O  O |
 |      Tii  O OO   OOO   O        |
 |      OO| O     OTii    Tii      |
 |   O Ti | Tii     O   OO     O   |
 |    O   |O     OOTi    Oi        |
 |  Ti    |Oi  O  O    O     O     |
 |  O    O|     Ti    Ti           |
 |       Ti         O      O       |
 |        |  O                     |

[...]

Density initialized from wave functions
 |        |                   O    |
 |    O   O  H   O                 |
 |        |   Oi      O H   O V    |
 |      O |   O V  O     OTi     Ti|
 |        | Oi     Oi     O    O   |
 |    O   |      O     OTi    TiO  |
 |        TiO     O    O    O      |
 |        OTi   TiO  O TiO  Tii    |
 |  O  O  |O  TiTi   Ti    O  O  O |
 |      Tii  O OO   OOO   O        |
 |      OO| O     OTii    Tii      |
 |   O Ti | Tii     O   OO     O   |
 |    O   |O     OOTi    Oi        |
 |  Ti    |Oi  O  O    O     O     |
 |  O    O|     Ti    Ti           |
 |       Ti         O      O       |
 |        |  O                     |

[...]

Forces in eV/Ang:
  0 O    -1.43425   -0.07656    1.18260
  1 O    -1.01979    0.00747    1.24377
  2 Ti    2.51339   -0.05221    1.23277
  3 Ti    2.52031    0.56781    0.88769
  4 Ti   -0.25408    0.13285   -1.15132
  5 Ti   -1.73839    0.26523   -1.06077
  6 O     0.27816   -0.17875   -0.14383
  7 O     0.23610    0.14620   -0.09874
  8 O    -1.04823   -0.03752   -0.16918
  9 O    -0.69815    0.02130   -0.18510
 10 O     0.12365    0.49691   -1.10315
 11 O     0.21304   -0.18791   -0.75743
 12 O    -0.00186    0.00421    0.00776
 13 O     0.00530    0.00297   -0.00573
 14 Ti    0.00616   -0.00438    0.01015
 15 Ti   -0.00166   -0.00257    0.00338
 16 Ti    0.01473   -0.01275    0.00281
 17 Ti    0.01343   -0.00662    0.01133
 18 O     0.00304    0.00001   -0.00516
 19 O     0.00492   -0.01347   -0.00106
 20 O     0.00001    0.00009   -0.00922
 21 O    -0.00150    0.00096    0.00055
 22 O     0.00515   -0.01494    0.00137
 23 O    -0.00055   -0.00806    0.00279
 24 O    -1.69156   -0.02075    1.95404
 25 O    -0.14054   -0.02667    0.15924
 26 Ti    0.23634    0.09740    0.52643
 27 Ti    3.86907    0.13290    0.23939
 28 Ti   -0.70323   -0.01967   -1.92942
 29 Ti   -0.64488    0.21814   -0.09636
 30 O     0.15856   -0.16451   -0.00527
 31 O    -0.10082   -0.36100    0.05686
 32 O    -1.12774    0.02986    0.36267
 33 O    -0.06798   -0.28818   -0.76112
 34 O     0.26169    0.14019   -0.79691
 35 O     0.00625    0.00987   -0.00985
 36 O    -0.01163   -0.00075   -0.01817
 37 Ti   -0.00689   -0.01630   -0.00585
 38 Ti   -0.03676   -0.04493   -0.02503
 39 Ti    0.01535   -0.03387   -0.00973
 40 Ti   -0.00256    0.00351   -0.01541
 41 O    -0.00141   -0.01168   -0.00484
 42 O    -0.00757   -0.02203   -0.06038
 43 O    -0.03208   -0.05339   -0.01751
 44 O     0.00366    0.00226   -0.00078
 45 O     0.00372   -0.00547   -0.01683
 46 O     0.02161   -0.02221   -0.00076
 47 O    -1.42099    0.09175    1.95816
 48 O    -0.98724   -0.03274    1.23717
 49 Ti    2.62119   -0.04990    1.08469
 50 Ti    3.58952   -0.45754    0.60749
 51 Ti   -1.00349   -0.04672   -2.54627
 52 Ti   -1.39193    0.13487   -1.20053
 53 O     0.26247    0.10295    0.15908
 54 O     0.05559    0.21025    0.08214
 55 O    -1.09732    0.14398    0.95864
 56 O    -0.95263    0.02581    0.07092
 57 O     0.11134    0.02678   -1.01680
 58 O     0.26858    0.01400   -0.87235
 59 O    -0.00412    0.00790    0.02064
[...]
 90 O     0.00168   -0.00608    0.00068
 91 O    -0.00098    0.00425   -0.00038
 92 O    -0.01107   -0.00922    0.00355
 93 O    -0.00981   -0.01011   -0.01649
 94 O    -0.01532    0.00905    0.00120
 95 V    -0.03306   -0.07397   -0.04676
 96 O     0.10994    0.09674   -0.12086
 97 O     0.02253   -0.01392    0.00548
 98 O     0.02574   -0.01051    0.04322
 99 V    -0.07758    0.83288    0.37739
100 O    -0.21178   -0.03016   -0.02574
101 O    -0.20851   -0.03429   -0.08265
102 O     0.36615   -0.10158   -0.02468
103 H    -0.03895   -0.11464    0.04334
104 H     0.06254    0.02032    0.11195

System changes: positions

Initializing position-dependent things.

Density initialized from wave functions
 |        |                   O    |
 |    O   O  H   O                 |
 |        |   Oi      O H   O V    |
 |      O |   O V  O     OTi     Ti|
 |        | Oi     Oi     O    O   |
 |    O   |      O     OTi    TiO  |
 |        TiO     O         O      |
 |        OTi   TiO  O OiO  Tii    |
 |  O  O  |O  TiTi   Ti    O  O  O |
 |      Tii  O OO   OOO   O        |
 |      OO| O     OTii    Tii      |
 |   O Ti | Tii     O   OO     O   |
 |    O   |O     OOTi    Oi        |
 |  Ti    |Oi  O  O    O     O     |
 |  O    O|     Ti    Ti           |
 |       Ti         O      O       |
 |        |  O                     |

Positions:
   0 O      9.983327    2.826717    7.405169    ( 0.0000,  0.0000,  0.0000)
   1 O      4.777925    0.950160    7.421038    ( 0.0000,  0.0000,  0.0000)
   2 Ti     2.992771    0.951953    8.316961    ( 0.0000,  0.0000,  0.0000)
   3 Ti     8.214264    2.770866    8.280353    ( 0.0000,  0.0000,  0.0000)
   4 Ti     0.649548    2.836298    8.986825    ( 0.0000,  0.0000,  0.0000)
   5 Ti     5.867036    0.914346    8.949845    ( 0.0000,  0.0000,  0.0000)
   6 O      1.096680    0.957856    8.927281    ( 0.0000,  0.0000,  0.0000)
   7 O      6.330111    2.833354    8.943215    ( 0.0000,  0.0000,  0.0000)
   8 O      9.246073    2.818125    9.835439    ( 0.0000,  0.0000,  0.0000)
   9 O      4.072344    0.939541    9.847174    ( 0.0000,  0.0000,  0.0000)
  10 O      7.774441    0.909061    8.335563    ( 0.0000,  0.0000,  0.0000)
  11 O      2.582685    2.890105    8.382110    ( 0.0000,  0.0000,  0.0000)
  12 O      1.088277    2.874292   11.022944    ( 0.0000,  0.0000,  0.0000)
  13 O      6.275825    0.910915   10.967057    ( 0.0000,  0.0000,  0.0000)
  14 Ti     4.401810    0.955144   11.940952    ( 0.0000,  0.0000,  0.0000)
  15 Ti     9.590389    2.845203   11.966464    ( 0.0000,  0.0000,  0.0000)
  16 Ti     2.023528    2.847564   12.543558    ( 0.0000,  0.0000,  0.0000)
  17 Ti     7.203905    0.945467   12.481095    ( 0.0000,  0.0000,  0.0000)
  18 O      2.569115    0.971391   12.753167    ( 0.0000,  0.0000,  0.0000)
  19 O      7.693300    2.875048   12.621985    ( 0.0000,  0.0000,  0.0000)
  20 O      0.378277    2.855812   13.401736    ( 0.0000,  0.0000,  0.0000)
  21 O      5.577251    1.007907   13.356509    ( 0.0000,  0.0000,  0.0000)
  22 O      9.187724    0.950238   11.990010    ( 0.0000,  0.0000,  0.0000)
  23 O      3.973225    2.922409   11.871977    ( 0.0000,  0.0000,  0.0000)
  24 O      9.991155    6.702438    7.394704    ( 0.0000,  0.0000,  0.0000)
  25 O      4.618599    4.771370    7.946370    ( 0.0000,  0.0000,  0.0000)
  26 Ti     2.775043    4.775937    7.983327    ( 0.0000,  0.0000,  0.0000)
  27 Ti     8.215116    6.733658    8.263758    ( 0.0000,  0.0000,  0.0000)
  28 Ti     0.698994    6.682604    9.155328    ( 0.0000,  0.0000,  0.0000)
  29 Ti     6.091392    4.752901    9.031818    ( 0.0000,  0.0000,  0.0000)
  30 O      1.061195    4.769445    8.936857    ( 0.0000,  0.0000,  0.0000)
  31 O      6.347502    6.689180    8.953041    ( 0.0000,  0.0000,  0.0000)
  32 O      9.247434    6.689998    9.820961    ( 0.0000,  0.0000,  0.0000)
  33 O      7.814993    4.761002    8.270793    ( 0.0000,  0.0000,  0.0000)
  34 O      2.586823    6.648076    8.393045    ( 0.0000,  0.0000,  0.0000)
  35 O      1.056644    6.574160   11.104012    ( 0.0000,  0.0000,  0.0000)
  36 O      5.992690    4.752123   10.971899    ( 0.0000,  0.0000,  0.0000)
  37 Ti     4.376088    4.764199   12.289841    ( 0.0000,  0.0000,  0.0000)
  38 Ti     9.620987    6.677581   11.908586    ( 0.0000,  0.0000,  0.0000)
  39 Ti     2.035117    6.661384   12.869968    ( 0.0000,  0.0000,  0.0000)
  40 Ti     7.213795    4.774542   12.398121    ( 0.0000,  0.0000,  0.0000)
  41 O      2.535934    4.722789   12.969538    ( 0.0000,  0.0000,  0.0000)
  42 O      7.644092    6.639685   12.618100    ( 0.0000,  0.0000,  0.0000)
  43 O      0.300861    6.777684   13.451661    ( 0.0000,  0.0000,  0.0000)
  44 O      5.696878    4.767242   13.507177    ( 0.0000,  0.0000,  0.0000)
  45 O      9.147257    4.774231   11.889959    ( 0.0000,  0.0000,  0.0000)
  46 O      3.956196    6.566988   11.812881    ( 0.0000,  0.0000,  0.0000)
  47 O      9.979105   10.517481    7.368578    ( 0.0000,  0.0000,  0.0000)
  48 O      4.830067    8.585896    7.392832    ( 0.0000,  0.0000,  0.0000)
  49 Ti     2.946753    8.591607    8.221081    ( 0.0000,  0.0000,  0.0000)
  50 Ti     8.140942   10.565202    8.215386    ( 0.0000,  0.0000,  0.0000)
  51 Ti     0.700936   10.528217    9.050547    ( 0.0000,  0.0000,  0.0000)
  52 Ti     5.910228    8.594333    8.925511    ( 0.0000,  0.0000,  0.0000)
  53 O      1.119767    8.579194    8.959972    ( 0.0000,  0.0000,  0.0000)
  54 O      6.293288   10.509086    8.948589    ( 0.0000,  0.0000,  0.0000)
  55 O      9.251487   10.459366    9.758824    ( 0.0000,  0.0000,  0.0000)
  56 O      4.077357    8.568080    9.750910    ( 0.0000,  0.0000,  0.0000)
  57 O      7.783045    8.614152    8.310648    ( 0.0000,  0.0000,  0.0000)
  58 O      2.598407   10.487951    8.367711    ( 0.0000,  0.0000,  0.0000)
  59 O      1.057601   10.600364   11.050364    ( 0.0000,  0.0000,  0.0000)
[...]
  90 O      7.733692   14.326766   12.757575    ( 0.0000,  0.0000,  0.0000)
  91 O      0.420881   14.332086   13.386016    ( 0.0000,  0.0000,  0.0000)
  92 O      5.566185   12.339208   13.407308    ( 0.0000,  0.0000,  0.0000)
  93 O      9.188828   12.418923   11.893386    ( 0.0000,  0.0000,  0.0000)
  94 O      4.020375   14.335748   12.003612    ( 0.0000,  0.0000,  0.0000)
  95 V      3.976702    8.483842   14.729029    ( 0.0000,  0.0000,  0.0000)
  96 O      2.849829    9.996930   14.602707    ( 0.0000,  0.0000,  0.0000)
  97 O      3.029548    7.048577   14.497202    ( 0.0000,  0.0000,  0.0000)
  98 O      4.654739    8.434752   16.161065    ( 0.0000,  0.0000,  0.0000)
  99 V      9.581354    9.634983   14.895561    ( 0.0000,  0.0000,  0.0000)
 100 O      9.222266   11.045860   15.595277    ( 0.0000,  0.0000,  0.0000)
 101 O      7.923191    8.704349   14.544861    ( 0.0000,  0.0000,  0.0000)
 102 O     10.362644    8.771959   15.993863    ( 0.0000,  0.0000,  0.0000)
 103 H      7.596770    8.112478   15.244242    ( 0.0000,  0.0000,  0.0000)
 104 H      2.560285   10.487555   15.393396    ( 0.0000,  0.0000,  0.0000)

Unit cell:
           periodic     x           y           z      points  spacing
  1. axis:    yes   10.341746    0.000000    0.000000    54     0.1915
  2. axis:    yes   -0.000000   15.289380    0.000000    80     0.1911
  3. axis:    yes    0.000000    0.000000   23.497201   125     0.1880

  Lengths:  10.341746  15.289380  23.497201
  Angles:   90.000000  90.000000  90.000000

Effective grid spacing dv^(1/3) = 0.1902

                     log10-error:    total        iterations:
           time      wfs    density  energy       fermi  poisson
iter:   1  16:55:08  -4.18   +inf  -858.760908    3
iter:   2  16:55:39  -5.07  -4.14  -858.760042    3
iter:   3  16:56:10  -5.63  -4.20  -858.760252    2
iter:   4  16:56:42  -5.59  -4.29  -858.759906    3
iter:   5  16:57:13  -6.00  -4.40  -858.759969    2
iter:   6  16:57:43  -6.36  -4.50  -858.760004    2
iter:   7  16:58:14  -6.45  -4.59  -858.759917    2
iter:   8  16:58:44  -7.11  -4.74  -858.759855    2
iter:   9  16:59:15  -7.15  -4.81  -858.759989    2
iter:  10  16:59:46  -7.27  -4.97  -858.759903    2
iter:  11  17:00:16  -7.61  -5.10  -858.759920    2

Converged after 11 iterations.

Dipole moment: (-3.833949, -1.972913, -1.172998) |e|*Ang

Energy contributions relative to reference atoms: (reference = -935653.237240)

Kinetic:       +620.011733
Potential:     -786.465915
External:        +0.000000
XC:            -698.408062
Entropy (-ST):   -0.519180
Local:           +6.361913
Free energy:   -859.019510
Extrapolated:  -858.759920

Fermi level: -1.33471

Showing all kpts
 Kpt  Band  Eigenvalues  Occupancy
  0   411     -2.88808    1.00000
  0   412     -1.27997    0.36646
  0   413     -1.23819    0.27584
  0   414     -1.18724    0.18623

  1   411     -2.88830    1.00000
  1   412     -1.27320    0.35090
  1   413     -1.24882    0.29757
  1   414     -1.18268    0.17942