User:   siva@s92n11.grendel.cscaa.dk
Date:   Thu Mar  5 19:24:09 2020
Arch:   x86_64
Pid:    324058
Python: 3.6.3
gpaw:   /home/siva/gpaw-1.5.1/gpaw
_gpaw:  /home/siva/gpaw-1.5.1/build/bin.linux-x86_64-3.6/gpaw-python
ase:    /home/siva/env1.5/lib/python3.6/site-packages/ase (version 3.17.0)
numpy:  /home/siva/env1.5/lib/python3.6/site-packages/numpy (version 1.16.0)
scipy:  /home/siva/env1.5/lib/python3.6/site-packages/scipy (version 1.2.0)
units:  Angstrom and eV
cores:  16
Extra parameters: {'blacs': True}

Input parameters:
  basis: dzp
  kpts: [2 2 1]
  mode: {ecut: 500.0,
         gammacentered: False,
         name: pw}
  xc: PBE

System changes: positions, numbers, cell, pbc, initial_charges, initial_magmoms

Initialize ...

O-setup:
  name: Oxygen
  id: 32ecd46bf208036f09c70b0ec9a88b78
  Z: 8
  valence: 6
  core: 2
  charge: 0.0
  file: /home/wido/sw/gpaw/basis/gpaw-setups-0.9.20000/O.PBE.gz
  cutoffs: 0.67(comp), 1.17(filt), 0.83(core), lmax=2
  valence states:
                energy  radius
    2s(2.00)   -23.961   0.688
    2p(4.00)    -9.029   0.598
    *s           3.251   0.688
    *p          18.182   0.598
    *d           0.000   0.619

  LCAO basis set for O:
    Name: dzp
    File: /home/wido/sw/gpaw/basis/gpaw-setups-0.9.20000/O.dzp.basis.gz
    Number of radial functions: 5
    Number of spherical harmonics: 13
      l=0, rc=4.3438 Bohr: 2s-sz confined orbital
      l=1, rc=5.3906 Bohr: 2p-sz confined orbital
      l=0, rc=2.2969 Bohr: 2s-dz split-valence wave
      l=1, rc=2.8906 Bohr: 2p-dz split-valence wave
      l=2, rc=5.3906 Bohr: d-type Gaussian polarization

Ti-setup:
  name: Titanium
  id: d282db07e62ae71292040bf25b25ccdd
  Z: 22
  valence: 12
  core: 10
  charge: 0.0
  file: /home/wido/sw/gpaw/basis/gpaw-setups-0.9.20000/Ti.PBE.gz
  cutoffs: 1.22(comp), 2.23(filt), 1.02(core), lmax=2
  valence states:
                energy  radius
    3s(2.00)   -62.623   1.270
    4s(2.00)    -4.466   1.270
    3p(6.00)   -38.862   1.058
    4p(0.00)    -1.466   1.058
    3d(2.00)    -4.258   1.058
    *d          22.953   1.058

  LCAO basis set for Ti:
    Name: dzp
    File: /home/wido/sw/gpaw/basis/gpaw-setups-0.9.20000/Ti.dzp.basis.gz
    Number of radial functions: 11
    Number of spherical harmonics: 29
      l=0, rc=3.4375 Bohr: 3s-sz confined orbital
      l=0, rc=9.9062 Bohr: 4s-sz confined orbital
      l=1, rc=3.8906 Bohr: 3p-sz confined orbital
      l=1, rc=13.1094 Bohr: 4p-sz confined orbital
      l=2, rc=6.6250 Bohr: 3d-sz confined orbital
      l=0, rc=2.1406 Bohr: 3s-dz split-valence wave
      l=0, rc=6.0156 Bohr: 4s-dz split-valence wave
      l=1, rc=2.3125 Bohr: 3p-dz split-valence wave
      l=1, rc=8.1094 Bohr: 4p-dz split-valence wave
      l=2, rc=3.8594 Bohr: 3d-dz split-valence wave
      l=1, rc=9.9062 Bohr: p-type Gaussian polarization

V-setup:
  name: Vanadium
  id: a8354638d66c808f8c867a10b63fd727
  Z: 23
  valence: 13
  core: 10
  charge: 0.0
  file: /home/wido/sw/gpaw/basis/gpaw-setups-0.9.20000/V.PBE.gz
  cutoffs: 1.19(comp), 2.14(filt), 0.96(core), lmax=2
  valence states:
                energy  radius
    3s(2.00)   -70.222   1.254
    4s(2.00)    -4.702   1.254
    3p(6.00)   -44.043   1.281
    4p(0.00)    -1.444   1.281
    3d(3.00)    -5.164   1.169
    *d          22.047   1.169

  LCAO basis set for V:
    Name: dzp
    File: /home/wido/sw/gpaw/basis/gpaw-setups-0.9.20000/V.dzp.basis.gz
    Number of radial functions: 11
    Number of spherical harmonics: 29
      l=0, rc=3.2656 Bohr: 3s-sz confined orbital
      l=0, rc=9.5312 Bohr: 4s-sz confined orbital
      l=1, rc=3.6719 Bohr: 3p-sz confined orbital
      l=1, rc=12.8750 Bohr: 4p-sz confined orbital
      l=2, rc=6.0938 Bohr: 3d-sz confined orbital
      l=0, rc=2.0625 Bohr: 3s-dz split-valence wave
      l=0, rc=5.7656 Bohr: 4s-dz split-valence wave
      l=1, rc=2.4062 Bohr: 3p-dz split-valence wave
      l=1, rc=7.8906 Bohr: 4p-dz split-valence wave
      l=2, rc=3.6562 Bohr: 3d-dz split-valence wave
      l=1, rc=9.5312 Bohr: p-type Gaussian polarization

H-setup:
  name: Hydrogen
  id: d65de229564ff8ea4db303e23b6d1ecf
  Z: 1
  valence: 1
  core: 0
  charge: 0.0
  file: /home/wido/sw/gpaw/basis/gpaw-setups-0.9.20000/H.PBE.gz
  cutoffs: 0.48(comp), 0.85(filt), 0.53(core), lmax=2
  valence states:
                energy  radius
    1s(1.00)    -6.494   0.476
    *s          20.717   0.476
    *p           0.000   0.476

  LCAO basis set for H:
    Name: dzp
    File: /home/wido/sw/gpaw/basis/gpaw-setups-0.9.20000/H.dzp.basis.gz
    Number of radial functions: 3
    Number of spherical harmonics: 5
      l=0, rc=6.4219 Bohr: 1s-sz confined orbital
      l=0, rc=3.6094 Bohr: 1s-dz split-valence wave
      l=1, rc=6.4219 Bohr: p-type Gaussian polarization

Reference energy: -719248.338470

Spin-paired calculation

Occupation numbers:
  Fermi-Dirac: width=0.1000 eV

Convergence criteria:
  Maximum total energy change: 0.0005 eV / electron
  Maximum integral of absolute density change: 0.0001 electrons
  Maximum integral of absolute eigenstate change: 4e-08 eV^2
  Maximum number of iterations: 333

Symmetries present (total): 1

  ( 1  0  0)
  ( 0  1  0)
  ( 0  0  1)

4 k-points: 2 x 2 x 1 Monkhorst-Pack grid
2 k-points in the irreducible part of the Brillouin zone
       k-points in crystal coordinates                weights
   0:     0.25000000   -0.25000000    0.00000000          2/4
   1:     0.25000000    0.25000000    0.00000000          2/4

Wave functions: Plane wave expansion
  Cutoff energy: 500.000 eV
  Number of coefficients (min, max): 70729, 70729
  Pulay-stress correction: 0.000000 eV/Ang^3 (de/decut=0.000000)
  Using FFTW library
  ScaLapack parameters: grid=1x1, blocksize=None
  Wavefunction extrapolation:
    Improved wavefunction reuse through dual PAW basis

Eigensolver
   Davidson(niter=2, smin=None, normalize=True)

Densities:
  Coarse grid: 54*60*125 grid
  Fine grid: 108*120*250 grid
  Total Charge: 0.000000

Density mixing:
  Method: separate
  Backend: pulay
  Linear mixing parameter: 0.05
  Mixing with 5 old densities
  Damping of long wave oscillations: 50

Hamiltonian:
  XC and Coulomb potentials evaluated on a 108*120*250 grid
  Using the PBE Exchange-Correlation functional

XC parameters: PBE with 2 nearest neighbor stencil

Total number of cores used: 16
Parallelization over k-points: 2
Domain decomposition: 1 x 2 x 4

Number of atoms: 82
Number of atomic orbitals: 1466
Number of bands in calculation: 388
Bands to converge: occupied states only
Number of valence electrons: 640

... initialized

Initializing position-dependent things.

Density initialized from atomic densities
Creating initial wave functions:
  388 bands from LCAO basis set

 |      |            O      O    |
 |     O|  H  O          O       |
 |      |  Oi     TO  H  OV      |
 |      |  OV   O      Oi    Oi  |
 |      |Oi     Oi     O   O     |
 |      |    O      O      TiO   |
 | O   TiO          Oi   O       |
 |      |    TiO  O   O   Ti     |
 |      O  O      TiTi  OTi    O |
 |  O Ti|   TO     O   O         |
 |    O |  O    OTi     Oi       |
 |  Ti  | Oi     O    O     O    |
 | O    O      Ti    Ti          |
 |      Ti          O     O      |
 |      |   O                    |

Positions:
   0 O      9.889324    1.911172    9.551683    ( 0.0000,  0.0000,  0.0000)
   1 O      4.718451    0.000000    9.551683    ( 0.0000,  0.0000,  0.0000)
   2 Ti     2.825504    0.000000   10.304640    ( 0.0000,  0.0000,  0.0000)
   3 Ti     7.996377    1.911172   10.304640    ( 0.0000,  0.0000,  0.0000)
   4 Ti     0.593255    1.911172   11.192561    ( 0.0000,  0.0000,  0.0000)
   5 Ti     5.764128    0.000000   11.192561    ( 0.0000,  0.0000,  0.0000)
   6 O      0.932557    0.000000   11.057597    ( 0.0000,  0.0000,  0.0000)
   7 O      6.103430    1.911172   11.057597    ( 0.0000,  0.0000,  0.0000)
   8 O      9.042055    1.911172   11.945518    ( 0.0000,  0.0000,  0.0000)
   9 O      3.871181    0.000000   11.945518    ( 0.0000,  0.0000,  0.0000)
  10 O      7.657075    0.000000   10.439604    ( 0.0000,  0.0000,  0.0000)
  11 O      2.486202    1.911172   10.439604    ( 0.0000,  0.0000,  0.0000)
  12 O      0.884316    1.895038   13.196926    ( 0.0000,  0.0000,  0.0000)
  13 O      6.079804    0.006459   13.140429    ( 0.0000,  0.0000,  0.0000)
  14 Ti     4.165276   -0.051170   14.026317    ( 0.0000,  0.0000,  0.0000)
  15 Ti     9.486524    1.894629   13.965731    ( 0.0000,  0.0000,  0.0000)
  16 Ti     1.872220    1.883263   15.017249    ( 0.0000,  0.0000,  0.0000)
  17 Ti     6.971705    0.016352   14.695646    ( 0.0000,  0.0000,  0.0000)
  18 O      2.352849   -0.035662   14.878795    ( 0.0000,  0.0000,  0.0000)
  19 O      7.448604    1.889810   15.001203    ( 0.0000,  0.0000,  0.0000)
  20 O      0.152849    1.923813   15.564133    ( 0.0000,  0.0000,  0.0000)
  21 O      5.317570   -0.033247   15.489556    ( 0.0000,  0.0000,  0.0000)
  22 O      8.951321    0.033996   14.062771    ( 0.0000,  0.0000,  0.0000)
  23 O      3.790039    1.873194   13.958154    ( 0.0000,  0.0000,  0.0000)
  24 O      9.889324    5.733517    9.551683    ( 0.0000,  0.0000,  0.0000)
  25 O      4.718451    3.822345    9.551683    ( 0.0000,  0.0000,  0.0000)
  26 Ti     2.825504    3.822345   10.304640    ( 0.0000,  0.0000,  0.0000)
  27 Ti     7.996377    5.733517   10.304640    ( 0.0000,  0.0000,  0.0000)
  28 Ti     0.593255    5.733517   11.192561    ( 0.0000,  0.0000,  0.0000)
  29 Ti     5.764128    3.822345   11.192561    ( 0.0000,  0.0000,  0.0000)
  30 O      0.932557    3.822345   11.057597    ( 0.0000,  0.0000,  0.0000)
  31 O      6.103430    5.733517   11.057597    ( 0.0000,  0.0000,  0.0000)
  32 O      9.042055    5.733517   11.945518    ( 0.0000,  0.0000,  0.0000)
  33 O      3.871181    3.822345   11.945518    ( 0.0000,  0.0000,  0.0000)
  34 O      7.657075    3.822345   10.439604    ( 0.0000,  0.0000,  0.0000)
  35 O      2.486202    5.733517   10.439604    ( 0.0000,  0.0000,  0.0000)
  36 O      0.850570    5.792590   13.218368    ( 0.0000,  0.0000,  0.0000)
  37 O      6.022821    3.762645   13.218710    ( 0.0000,  0.0000,  0.0000)
  38 Ti     4.076688    3.695729   13.839573    ( 0.0000,  0.0000,  0.0000)
  39 Ti     9.246265    5.860274   13.840555    ( 0.0000,  0.0000,  0.0000)
  40 Ti     1.952548    5.826385   14.740382    ( 0.0000,  0.0000,  0.0000)
  41 Ti     7.123193    3.728067   14.743097    ( 0.0000,  0.0000,  0.0000)
  42 O      2.323539    3.831419   14.656683    ( 0.0000,  0.0000,  0.0000)
  43 O      7.494207    5.724639   14.657311    ( 0.0000,  0.0000,  0.0000)
  44 O     -0.114097    5.754803   15.593991    ( 0.0000,  0.0000,  0.0000)
  45 O      5.057456    3.805471   15.593605    ( 0.0000,  0.0000,  0.0000)
  46 O      8.857559    3.759259   13.984335    ( 0.0000,  0.0000,  0.0000)
  47 O      3.684435    5.795840   13.977292    ( 0.0000,  0.0000,  0.0000)
  48 O      9.889324    9.555862    9.551683    ( 0.0000,  0.0000,  0.0000)
  49 O      4.718451    7.644690    9.551683    ( 0.0000,  0.0000,  0.0000)
  50 Ti     2.825504    7.644690   10.304640    ( 0.0000,  0.0000,  0.0000)
  51 Ti     7.996377    9.555862   10.304640    ( 0.0000,  0.0000,  0.0000)
  52 Ti     0.593255    9.555862   11.192561    ( 0.0000,  0.0000,  0.0000)
  53 Ti     5.764128    7.644690   11.192561    ( 0.0000,  0.0000,  0.0000)
  54 O      0.932557    7.644690   11.057597    ( 0.0000,  0.0000,  0.0000)
  55 O      6.103430    9.555862   11.057597    ( 0.0000,  0.0000,  0.0000)
  56 O      9.042055    9.555862   11.945518    ( 0.0000,  0.0000,  0.0000)
  57 O      3.871181    7.644690   11.945518    ( 0.0000,  0.0000,  0.0000)
  58 O      7.657075    7.644690   10.439604    ( 0.0000,  0.0000,  0.0000)
  59 O      2.486202    9.555862   10.439604    ( 0.0000,  0.0000,  0.0000)
[...]
  67 O      7.523835    9.591064   14.879075    ( 0.0000,  0.0000,  0.0000)
  68 O      0.147162    9.585938   15.489876    ( 0.0000,  0.0000,  0.0000)
  69 O      5.321370    7.626981   15.562767    ( 0.0000,  0.0000,  0.0000)
  70 O      8.959864    7.682937   13.957542    ( 0.0000,  0.0000,  0.0000)
  71 O      3.780367    9.521629   14.061991    ( 0.0000,  0.0000,  0.0000)
  72 V      3.735794    3.748206   16.842566    ( 0.0000,  0.0000,  0.0000)
  73 O      2.667627    5.325483   16.714440    ( 0.0000,  0.0000,  0.0000)
  74 O      2.818305    2.275002   16.685549    ( 0.0000,  0.0000,  0.0000)
  75 O      4.414910    3.800419   18.275845    ( 0.0000,  0.0000,  0.0000)
  76 V      8.906909    5.812391   16.843856    ( 0.0000,  0.0000,  0.0000)
  77 O      9.587128    5.761271   18.276751    ( 0.0000,  0.0000,  0.0000)
  78 O      7.839114    4.234619   16.717842    ( 0.0000,  0.0000,  0.0000)
  79 O      7.986843    7.283946   16.685569    ( 0.0000,  0.0000,  0.0000)
  80 H      7.889916    3.572609   17.433297    ( 0.0000,  0.0000,  0.0000)
  81 H      2.719342    5.992109   17.425502    ( 0.0000,  0.0000,  0.0000)

Unit cell:
           periodic     x           y           z      points  spacing
  1. axis:    yes   10.341746    0.000000    0.000000    54     0.1915
  2. axis:    yes   -0.000000   11.467000    0.000000    60     0.1911
  3. axis:    yes    0.000000    0.000000   23.497201   125     0.1880

  Lengths:  10.341746  11.467000  23.497201
  Angles:   90.000000  90.000000  90.000000

Effective grid spacing dv^(1/3) = 0.1902

                     log10-error:    total        iterations:
           time      wfs    density  energy       fermi  poisson
iter:   1  19:25:27  -0.09   +inf  -761.526870    0
iter:   2  19:25:42  -1.00  -0.95  -728.329092    2
iter:   3  19:25:57  +0.43  -1.00  -664.694724    5
iter:   4  19:26:12  -1.04  -1.33  -675.142741    4
iter:   5  19:26:27  -1.21  -1.26  -684.494957    3
iter:   6  19:26:43  -0.12  -1.24  -676.848857    5
iter:   7  19:26:58  -0.66  -1.62  -673.769161    4
iter:   8  19:27:13  -1.22  -1.65  -669.234607    3
iter:   9  19:27:28  -1.14  -1.78  -667.337252    2
iter:  10  19:27:43  -1.44  -2.01  -668.265566    3
iter:  11  19:27:58  -1.87  -2.02  -668.730497    2
iter:  12  19:28:13  -1.64  -1.99  -667.174004    3
iter:  13  19:28:28  -2.22  -2.23  -667.163145    2
iter:  14  19:28:44  -2.74  -2.30  -667.149906    3
iter:  15  19:28:59  -2.25  -2.42  -667.175723    2
iter:  16  19:29:14  -3.17  -2.47  -667.118914    2
iter:  17  19:29:29  -3.84  -2.80  -667.118254    1
iter:  18  19:29:44  -3.36  -2.87  -667.124539    2
iter:  19  19:29:59  -4.09  -3.03  -667.115666    2
iter:  20  19:30:15  -4.53  -3.28  -667.114172    1
iter:  21  19:30:30  -4.66  -3.29  -667.114331    2
iter:  22  19:30:45  -4.68  -3.62  -667.114047    2
iter:  23  19:31:00  -5.33  -3.71  -667.114025    2
iter:  24  19:31:15  -5.66  -3.89  -667.113920    1
iter:  25  19:31:30  -6.03  -3.94  -667.113927    1
iter:  26  19:31:46  -5.42  -3.96  -667.114020    1
iter:  27  19:32:01  -6.37  -4.11  -667.113920    1
iter:  28  19:32:16  -5.79  -4.33  -667.113915    1
iter:  29  19:32:31  -6.71  -4.30  -667.113910    1
iter:  30  19:32:46  -7.11  -4.38  -667.113906    1
iter:  31  19:33:01  -7.68  -4.53  -667.113906    1

Converged after 31 iterations.

Dipole moment: (-11.886847, 5.313417, -0.698397) |e|*Ang

Energy contributions relative to reference atoms: (reference = -719248.338470)

Kinetic:       +419.504531
Potential:     -561.282932
External:        +0.000000
XC:            -530.441457
Entropy (-ST):   -0.000364
Local:           +5.106134
Free energy:   -667.114088
Extrapolated:  -667.113906

Fermi level: -2.25413

Showing all kpts
 Kpt  Band  Eigenvalues  Occupancy
  0   318     -3.30970    0.99997
  0   319     -3.29996    0.99997
  0   320     -1.24754    0.00004
  0   321     -1.21229    0.00003

  1   318     -3.30966    0.99997
  1   319     -3.30002    0.99997
  1   320     -1.24750    0.00004
  1   321     -1.21234    0.00003

Forces in eV/Ang:
  0 O    -1.76263    0.03793    1.53525
  1 O    -1.74477    0.02597    1.56771
  2 Ti    4.00324   -0.16618    2.24595
  3 Ti    4.11475   -0.25628    2.19876
  4 Ti   -2.09490   -0.23806   -1.26214
  5 Ti   -2.27189   -0.11396   -2.26343
  6 O     0.90233    0.01142   -0.11597
  7 O     0.84210    0.23548   -0.10239
  8 O    -0.69583   -0.03974   -0.77954
  9 O    -0.49751   -0.13202   -0.52006
 10 O    -0.34915    0.05369   -0.91172
 11 O    -0.27491    0.33732   -0.93131
 12 O    -0.00320   -0.00247    0.00056
 13 O     0.00161   -0.00077    0.00313
 14 Ti    0.00354    0.00156    0.00218
 15 Ti    0.00467   -0.00087   -0.00112
 16 Ti   -0.00396   -0.00147   -0.00064
 17 Ti    0.00039    0.00181   -0.00020
 18 O     0.00332    0.00242   -0.00333
 19 O    -0.00139    0.00140   -0.00295
 20 O    -0.00022    0.00479   -0.00572
 21 O     0.00359    0.00158   -0.00911
 22 O     0.00247   -0.00209    0.00143
 23 O     0.00295   -0.00180   -0.00084
 24 O    -1.78607   -0.00732    1.75416
 25 O    -1.78611    0.00721    1.75477
 26 Ti    3.44969   -0.11335    1.62590
 27 Ti    3.45240    0.11392    1.62841
 28 Ti   -1.51334    0.11275   -1.59476
 29 Ti   -1.50736   -0.11281   -1.59409
 30 O     0.98034    0.25402   -0.04768
 31 O     0.97870   -0.25530   -0.04623
 32 O    -0.73967   -0.11129   -1.05172
 33 O    -0.73506    0.10706   -1.05747
 34 O    -0.41252    0.27228   -0.85921
 35 O    -0.41128   -0.27333   -0.85994
 36 O    -0.00230   -0.00549   -0.00076
 37 O    -0.00159    0.00356    0.00263
 38 Ti   -0.00355   -0.00042    0.00140
 39 Ti   -0.00144    0.00048   -0.00113
 40 Ti   -0.00051    0.00023   -0.00366
 41 Ti    0.00010    0.00238   -0.00247
 42 O     0.00222   -0.00230    0.00104
 43 O    -0.00048    0.00161   -0.00513
 44 O     0.00459   -0.00263   -0.00654
 45 O     0.00444   -0.00370   -0.00453
 46 O    -0.00348   -0.00132   -0.00640
 47 O    -0.00038    0.00249    0.00271
 48 O    -1.74332   -0.02608    1.56832
 49 O    -1.76528   -0.03778    1.53440
 50 Ti    4.11427    0.25625    2.19620
 51 Ti    4.00043    0.16556    2.24624
 52 Ti   -2.27279    0.11211   -2.26393
 53 Ti   -2.09043    0.24070   -1.26182
 54 O     0.84300   -0.23599   -0.10320
 55 O     0.90323   -0.01113   -0.11995
 56 O    -0.49553    0.13361   -0.51894
 57 O    -0.69891    0.04249   -0.78980
 58 O    -0.27510   -0.33651   -0.93205
 59 O    -0.34939   -0.05349   -0.91140
[...]
 67 O     0.00093   -0.00307   -0.00534
 68 O     0.00160    0.00378   -0.01094
 69 O     0.00579    0.00361   -0.00287
 70 O     0.00276   -0.00040   -0.00198
 71 O     0.00167   -0.00012    0.00241
 72 V     0.00240    0.00000    0.00163
 73 O     0.00248   -0.00162   -0.00030
 74 O    -0.00324   -0.00115   -0.00855
 75 O     0.00242   -0.00376    0.00085
 76 V     0.00029   -0.00390   -0.00449
 77 O    -0.00178    0.00281   -0.00016
 78 O     0.00215   -0.00230   -0.00743
 79 O     0.00170   -0.00364   -0.00821
 80 H     0.00118    0.00122   -0.00568
 81 H     0.00385   -0.00550   -0.00091