User:   siva@s92n12.grendel.cscaa.dk
Date:   Tue Feb 25 18:21:18 2020
Arch:   x86_64
Pid:    432412
Python: 3.6.3
gpaw:   /home/siva/gpaw-1.5.1/gpaw
_gpaw:  /home/siva/gpaw-1.5.1/build/bin.linux-x86_64-3.6/gpaw-python
ase:    /home/siva/env1.5/lib/python3.6/site-packages/ase (version 3.17.0)
numpy:  /home/siva/env1.5/lib/python3.6/site-packages/numpy (version 1.16.0)
scipy:  /home/siva/env1.5/lib/python3.6/site-packages/scipy (version 1.2.0)
units:  Angstrom and eV
cores:  36
Extra parameters: {'blacs': True}

Input parameters:
  basis: dzp
  kpts: [2 2 1]
  mode: {ecut: 500.0,
         gammacentered: False,
         name: pw}
  xc: PBE

System changes: positions, numbers, cell, pbc, initial_charges, initial_magmoms

Initialize ...

O-setup:
  name: Oxygen
  id: 32ecd46bf208036f09c70b0ec9a88b78
  Z: 8
  valence: 6
  core: 2
  charge: 0.0
  file: /home/wido/sw/gpaw/basis/gpaw-setups-0.9.20000/O.PBE.gz
  cutoffs: 0.67(comp), 1.17(filt), 0.83(core), lmax=2
  valence states:
                energy  radius
    2s(2.00)   -23.961   0.688
    2p(4.00)    -9.029   0.598
    *s           3.251   0.688
    *p          18.182   0.598
    *d           0.000   0.619

  LCAO basis set for O:
    Name: dzp
    File: /home/wido/sw/gpaw/basis/gpaw-setups-0.9.20000/O.dzp.basis.gz
    Number of radial functions: 5
    Number of spherical harmonics: 13
      l=0, rc=4.3438 Bohr: 2s-sz confined orbital
      l=1, rc=5.3906 Bohr: 2p-sz confined orbital
      l=0, rc=2.2969 Bohr: 2s-dz split-valence wave
      l=1, rc=2.8906 Bohr: 2p-dz split-valence wave
      l=2, rc=5.3906 Bohr: d-type Gaussian polarization

Ti-setup:
  name: Titanium
  id: d282db07e62ae71292040bf25b25ccdd
  Z: 22
  valence: 12
  core: 10
  charge: 0.0
  file: /home/wido/sw/gpaw/basis/gpaw-setups-0.9.20000/Ti.PBE.gz
  cutoffs: 1.22(comp), 2.23(filt), 1.02(core), lmax=2
  valence states:
                energy  radius
    3s(2.00)   -62.623   1.270
    4s(2.00)    -4.466   1.270
    3p(6.00)   -38.862   1.058
    4p(0.00)    -1.466   1.058
    3d(2.00)    -4.258   1.058
    *d          22.953   1.058

  LCAO basis set for Ti:
    Name: dzp
    File: /home/wido/sw/gpaw/basis/gpaw-setups-0.9.20000/Ti.dzp.basis.gz
    Number of radial functions: 11
    Number of spherical harmonics: 29
      l=0, rc=3.4375 Bohr: 3s-sz confined orbital
      l=0, rc=9.9062 Bohr: 4s-sz confined orbital
      l=1, rc=3.8906 Bohr: 3p-sz confined orbital
      l=1, rc=13.1094 Bohr: 4p-sz confined orbital
      l=2, rc=6.6250 Bohr: 3d-sz confined orbital
      l=0, rc=2.1406 Bohr: 3s-dz split-valence wave
      l=0, rc=6.0156 Bohr: 4s-dz split-valence wave
      l=1, rc=2.3125 Bohr: 3p-dz split-valence wave
      l=1, rc=8.1094 Bohr: 4p-dz split-valence wave
      l=2, rc=3.8594 Bohr: 3d-dz split-valence wave
      l=1, rc=9.9062 Bohr: p-type Gaussian polarization

V-setup:
  name: Vanadium
  id: a8354638d66c808f8c867a10b63fd727
  Z: 23
  valence: 13
  core: 10
  charge: 0.0
  file: /home/wido/sw/gpaw/basis/gpaw-setups-0.9.20000/V.PBE.gz
  cutoffs: 1.19(comp), 2.14(filt), 0.96(core), lmax=2
  valence states:
                energy  radius
    3s(2.00)   -70.222   1.254
    4s(2.00)    -4.702   1.254
    3p(6.00)   -44.043   1.281
    4p(0.00)    -1.444   1.281
    3d(3.00)    -5.164   1.169
    *d          22.047   1.169

  LCAO basis set for V:
    Name: dzp
    File: /home/wido/sw/gpaw/basis/gpaw-setups-0.9.20000/V.dzp.basis.gz
    Number of radial functions: 11
    Number of spherical harmonics: 29
      l=0, rc=3.2656 Bohr: 3s-sz confined orbital
      l=0, rc=9.5312 Bohr: 4s-sz confined orbital
      l=1, rc=3.6719 Bohr: 3p-sz confined orbital
      l=1, rc=12.8750 Bohr: 4p-sz confined orbital
      l=2, rc=6.0938 Bohr: 3d-sz confined orbital
      l=0, rc=2.0625 Bohr: 3s-dz split-valence wave
      l=0, rc=5.7656 Bohr: 4s-dz split-valence wave
      l=1, rc=2.4062 Bohr: 3p-dz split-valence wave
      l=1, rc=7.8906 Bohr: 4p-dz split-valence wave
      l=2, rc=3.6562 Bohr: 3d-dz split-valence wave
      l=1, rc=9.5312 Bohr: p-type Gaussian polarization

H-setup:
  name: Hydrogen
  id: d65de229564ff8ea4db303e23b6d1ecf
  Z: 1
  valence: 1
  core: 0
  charge: 0.0
  file: /home/wido/sw/gpaw/basis/gpaw-setups-0.9.20000/H.PBE.gz
  cutoffs: 0.48(comp), 0.85(filt), 0.53(core), lmax=2
  valence states:
                energy  radius
    1s(1.00)    -6.494   0.476
    *s          20.717   0.476
    *p           0.000   0.476

  LCAO basis set for H:
    Name: dzp
    File: /home/wido/sw/gpaw/basis/gpaw-setups-0.9.20000/H.dzp.basis.gz
    Number of radial functions: 3
    Number of spherical harmonics: 5
      l=0, rc=6.4219 Bohr: 1s-sz confined orbital
      l=0, rc=3.6094 Bohr: 1s-dz split-valence wave
      l=1, rc=6.4219 Bohr: p-type Gaussian polarization

Reference energy: -719248.338470

Spin-paired calculation

Occupation numbers:
  Fermi-Dirac: width=0.1000 eV

Convergence criteria:
  Maximum total energy change: 0.0005 eV / electron
  Maximum integral of absolute density change: 0.0001 electrons
  Maximum integral of absolute eigenstate change: 4e-08 eV^2
  Maximum number of iterations: 333

Symmetries present (total): 1

  ( 1  0  0)
  ( 0  1  0)
  ( 0  0  1)

4 k-points: 2 x 2 x 1 Monkhorst-Pack grid
2 k-points in the irreducible part of the Brillouin zone
       k-points in crystal coordinates                weights
   0:     0.25000000   -0.25000000    0.00000000          2/4
   1:     0.25000000    0.25000000    0.00000000          2/4

Wave functions: Plane wave expansion
  Cutoff energy: 500.000 eV
  Number of coefficients (min, max): 70729, 70729
  Pulay-stress correction: 0.000000 eV/Ang^3 (de/decut=0.000000)
  Using FFTW library
  ScaLapack parameters: grid=1x1, blocksize=None
  Wavefunction extrapolation:
    Improved wavefunction reuse through dual PAW basis

Eigensolver
   Davidson(niter=2, smin=None, normalize=True)

Densities:
  Coarse grid: 54*60*125 grid
  Fine grid: 108*120*250 grid
  Total Charge: 0.000000

Density mixing:
  Method: separate
  Backend: pulay
  Linear mixing parameter: 0.05
  Mixing with 5 old densities
  Damping of long wave oscillations: 50

Hamiltonian:
  XC and Coulomb potentials evaluated on a 108*120*250 grid
  Using the PBE Exchange-Correlation functional

XC parameters: PBE with 2 nearest neighbor stencil

Total number of cores used: 36
Parallelization over k-points: 2
Domain decomposition: 2 x 3 x 3

Number of atoms: 82
Number of atomic orbitals: 1466
Number of bands in calculation: 388
Bands to converge: occupied states only
Number of valence electrons: 640

... initialized

Initializing position-dependent things.

Density initialized from atomic densities
Creating initial wave functions:
  388 bands from LCAO basis set

 |     O|     O                  |
 |      |  OTi    O    H O       |
 |   O  |H O V  O     OTi     Ti |
 |      |Oi     Ti     OV   O    |
 |      |     O O   OOi    TiO   |
 |O    OTO               O       |
 |     Ti    OOi  O O O   Ti     |
 |     OO   O     TiTi  OTi    O |
 |  O Ti|  TiO     O   O         |
 |    O |  O    OTi     Oi       |
 |  Ti  | Oi     O    O     O    |
 | O    O      Ti    Ti          |
 |      Ti          O     O      |
 |      |   O                    |

Positions:
   0 O      9.889324    1.911172    9.551683    ( 0.0000,  0.0000,  0.0000)
   1 O      4.718451    0.000000    9.551683    ( 0.0000,  0.0000,  0.0000)
   2 Ti     2.825504    0.000000   10.304640    ( 0.0000,  0.0000,  0.0000)
   3 Ti     7.996377    1.911172   10.304640    ( 0.0000,  0.0000,  0.0000)
   4 Ti     0.593255    1.911172   11.192561    ( 0.0000,  0.0000,  0.0000)
   5 Ti     5.764128    0.000000   11.192561    ( 0.0000,  0.0000,  0.0000)
   6 O      0.932557    0.000000   11.057597    ( 0.0000,  0.0000,  0.0000)
   7 O      6.103430    1.911172   11.057597    ( 0.0000,  0.0000,  0.0000)
   8 O      9.042055    1.911172   11.945518    ( 0.0000,  0.0000,  0.0000)
   9 O      3.871181    0.000000   11.945518    ( 0.0000,  0.0000,  0.0000)
  10 O      7.657075    0.000000   10.439604    ( 0.0000,  0.0000,  0.0000)
  11 O      2.486202    1.911172   10.439604    ( 0.0000,  0.0000,  0.0000)
  12 O      0.960329    1.911172   13.103366    ( 0.0000,  0.0000,  0.0000)
  13 O      6.131202    0.000000   13.103366    ( 0.0000,  0.0000,  0.0000)
  14 Ti     4.238256    0.000000   13.856323    ( 0.0000,  0.0000,  0.0000)
  15 Ti     9.409129    1.911172   13.856323    ( 0.0000,  0.0000,  0.0000)
  16 Ti     2.006007    1.911172   14.744244    ( 0.0000,  0.0000,  0.0000)
  17 Ti     7.176880    0.000000   14.744244    ( 0.0000,  0.0000,  0.0000)
  18 O      2.345309    0.000000   14.609280    ( 0.0000,  0.0000,  0.0000)
  19 O      7.516182    1.911172   14.609280    ( 0.0000,  0.0000,  0.0000)
  20 O      0.113060    1.911172   15.497201    ( 0.0000,  0.0000,  0.0000)
  21 O      5.283933    0.000000   15.497201    ( 0.0000,  0.0000,  0.0000)
  22 O      9.069827    0.000000   13.991287    ( 0.0000,  0.0000,  0.0000)
  23 O      3.898954    1.911172   13.991287    ( 0.0000,  0.0000,  0.0000)
  24 O      9.889324    5.733517    9.551683    ( 0.0000,  0.0000,  0.0000)
  25 O      4.718451    3.822345    9.551683    ( 0.0000,  0.0000,  0.0000)
  26 Ti     2.825504    3.822345   10.304640    ( 0.0000,  0.0000,  0.0000)
  27 Ti     7.996377    5.733517   10.304640    ( 0.0000,  0.0000,  0.0000)
  28 Ti     0.593255    5.733517   11.192561    ( 0.0000,  0.0000,  0.0000)
  29 Ti     5.764128    3.822345   11.192561    ( 0.0000,  0.0000,  0.0000)
  30 O      0.932557    3.822345   11.057597    ( 0.0000,  0.0000,  0.0000)
  31 O      6.103430    5.733517   11.057597    ( 0.0000,  0.0000,  0.0000)
  32 O      9.042055    5.733517   11.945518    ( 0.0000,  0.0000,  0.0000)
  33 O      3.871181    3.822345   11.945518    ( 0.0000,  0.0000,  0.0000)
  34 O      7.657075    3.822345   10.439604    ( 0.0000,  0.0000,  0.0000)
  35 O      2.486202    5.733517   10.439604    ( 0.0000,  0.0000,  0.0000)
  36 O      0.960329    5.733517   13.103366    ( 0.0000,  0.0000,  0.0000)
  37 O      6.131202    3.822345   13.103366    ( 0.0000,  0.0000,  0.0000)
  38 Ti     4.238256    3.822345   13.856323    ( 0.0000,  0.0000,  0.0000)
  39 Ti     9.409129    5.733517   13.856323    ( 0.0000,  0.0000,  0.0000)
  40 Ti     2.006007    5.733517   14.744244    ( 0.0000,  0.0000,  0.0000)
  41 Ti     7.176880    3.822345   14.744244    ( 0.0000,  0.0000,  0.0000)
  42 O      2.345309    3.822345   14.609280    ( 0.0000,  0.0000,  0.0000)
  43 O      7.516182    5.733517   14.609280    ( 0.0000,  0.0000,  0.0000)
  44 O      0.113060    5.733517   15.497201    ( 0.0000,  0.0000,  0.0000)
  45 O      5.283933    3.822345   15.497201    ( 0.0000,  0.0000,  0.0000)
  46 O      9.069827    3.822345   13.991287    ( 0.0000,  0.0000,  0.0000)
  47 O      3.898954    5.733517   13.991287    ( 0.0000,  0.0000,  0.0000)
  48 O      9.889324    9.555862    9.551683    ( 0.0000,  0.0000,  0.0000)
  49 O      4.718451    7.644690    9.551683    ( 0.0000,  0.0000,  0.0000)
  50 Ti     2.825504    7.644690   10.304640    ( 0.0000,  0.0000,  0.0000)
  51 Ti     7.996377    9.555862   10.304640    ( 0.0000,  0.0000,  0.0000)
[...]
 |      |     O          Ti      |
 |     O|     O                  |
 |      |  Oi     TO   H O    O  |
 |   O  |H OV   O     OTi    Ti  |
 |      |Oi     Oi     OV  O     |
 |      |     O     OOi    TiO   |
 |     OTO   Ti          O O     |
 |     Ti    OOO  O O O   Ti     |
 |      O  O        Ti  TiO    O |
 |  O Ti|   TO     O             |
 |    O |  O     Ti     Oi       |
 |  Ti  | Oi     O    O     O    |
 | O    O      Ti    Ti          |
 |      Ti          O     O      |
 |      |   O                    |

[...]

Density initialized from wave functions
 |      |     O          Ti      |
 |     O|     O                  |
 |      |  Oi     TO   H O    O  |
 |   O  |H OV   O     OTi    Ti  |
 |      |Oi     Oi     OV  O     |
 |      |     O     OOi    TiO   |
 |     OTO               O O     |
 |     Ti    TOO  O O O   Ti     |
 |      O  O        Ti  TiO    O |
 |  O Ti|   TO     O             |
 |    O |  O     Ti     Oi       |
 |  Ti  | Oi     O    O     O    |
 | O    O      Ti    Ti          |
 |      Ti          O     O      |
 |      |   O                    |

[...]

Density initialized from wave functions
 |      |                Ti      |
 |     O|    OO                  |
 |      |  Oi     TO   H O    O  |
 |   O  |H OV   O     OTi    Ti  |
 |      |Oi     Oi     OV  O     |
 |      |     O     OOi    TiO   |
 |     OTO               O O     |
 |     Ti    TOO  O O O   Ti     |
 |      O  O        Ti  TiO    O |
 |  O Ti|   TO     O             |
 |    O |  O     Ti     Oi       |
 |  Ti  | Oi     O    O     O    |
 | O    O      Ti    Ti          |
 |      Ti          O     O      |
 |      |   O                    |

[...]

Density initialized from wave functions
 |      |                Ti      |
 |     O|    OO                  |
 |      |  Oi     TO   H O    O  |
 |   O  |H OV   O     Oi     Ti  |
 |      |Oi     Oi     OV  O     |
 |      |     O     OOi    TiO   |
 |     OTO               O O     |
 |     Ti    TOO  O O O   Ti     |
 |      O  O        Ti  TiO    O |
 |  O Ti|   TO     O             |
 |    O |  O     Ti     Oi       |
 |  Ti  | Oi     O    O     O    |
 | O    O      Ti    Ti          |
 |      Ti          O     O      |
 |      |   O                    |

[...]

Density initialized from wave functions
 |      |                Ti      |
 |     O|    OO                  |
 |      |  Oi     TO   H O    O  |
 |   O  |  OV   O     OTi    Ti  |
 |      |Hi     Oi    O V  O     |
 |      |     O     OOi    TiO   |
 |     OTO               O O     |
 |     Ti    TOO  O O O   Ti     |
 |      O  O        Ti  TiO    O |
 |  O Ti|   TO     O             |
 |    O |  O     Ti     Oi       |
 |  Ti  | Oi     O    O     O    |
 | O    O      Ti    Ti          |
 |      Ti          O     O      |
 |      |   O                    |

[...]

Density initialized from wave functions
 |      |                Ti      |
 |     O|    OO                  |
 |      |  Oi     TO   H O    O  |
 |   O  |  OV   O     OTi    Ti  |
 |      |Hi     Oi    O V  O     |
 |      |     O     OOi    TiO   |
 |     OTO               O O     |
 |     Ti    TOO  O O O   Ti     |
 |      O  O        Ti  TiO    O |
 |  O Ti|   TO     O             |
 |    O |  O     Ti     Oi       |
 |  Ti  | Oi     O    O     O    |
 | O    O      Ti    Ti          |
 |      Ti          O     O      |
 |      |   O                    |

[...]

Density initialized from wave functions
 |      |                Ti      |
 |     O|    OO                  |
 |      |  Oi     TO   H O    O  |
 |   O  |H OV   O     Oi     Ti  |
 |      |Oi     Oi     OV  O     |
 |      |     O     OTi    TiO   |
 |     OTO               O O     |
 |     Ti    TOO  O O O   Ti     |
 |      O  O        Ti  TiO    O |
 |  O Ti|   TO     O             |
 |    O |  O     Ti     Oi       |
 |  Ti  | Oi     O    O     O    |
 | O    O      Ti    Ti          |
 |      Ti          O     O      |
 |      |   O                    |

[...]

Density initialized from wave functions
 |      |    O           Ti      |
 |     O|     O                  |
 |      |  Oi     TO   H O    O  |
 |   O  |H OV   O     OTi    Ti  |
 |      |Oi     Oi     OV  O     |
 |      |     O     OOi    TiO   |
 |     OTO               O O     |
 |     Ti    TOO  O O O   Ti     |
 |      O  O        Ti  TiO    O |
 |  O Ti|   TO     O             |
 |    O |  O     Ti     Oi       |
 |  Ti  | Oi     O    O     O    |
 | O    O      Ti    Ti          |
 |      Ti          O     O      |
 |      |   O                    |

[...]

Density initialized from wave functions
 |      |                Ti      |
 |     O|     O                  |
 |      |  Oi     TO   H O    O  |
 |   O  |  OV   O     Oi     Ti  |
 |      |Hi     Oi     OV  O     |
 |      |     O     OOi    TiO   |
 |     OTO               O O     |
 |     Ti    TOO  O O O   Ti     |
 |      O  O        Ti  TiO    O |
 |  O Ti|   TO     O             |
 |    O |  O     Ti     Oi       |
 |  Ti  | Oi     O    O     O    |
 | O    O      Ti    Ti          |
 |      Ti          O     O      |
 |      |   O                    |

[...]

Density initialized from wave functions
 |      |     O                  |
 |     O|     O          Ti      |
 |      |  Oi     TO   H O    O  |
 |   O  |H OV   O     OTi    Ti  |
 |      |Oi     Oi     OV  O     |
 |      |     O     OOi    TiO   |
 |     OTO               O O     |
 |     Ti    TOO  O O O   Ti     |
 |      O  O        Ti  TiO    O |
 |  O Ti|   TO     O             |
 |    O |  O     Ti     Oi       |
 |  Ti  | Oi     O    O     O    |
 | O    O      Ti    Ti          |
 |      Ti          O     O      |
 |      |   O                    |

[...]

System changes: positions

Initializing position-dependent things.

Density initialized from wave functions
 |      |                Ti      |
 |     O|    OO                  |
 |      |  Oi     TO   H O    O  |
 |   O  |H OV   O     OTi    Ti  |
 |      |Oi     Oi     OV  O     |
 |      |     O     OOi    TiO   |
 |     OTO               O O     |
 |     Ti    TOO  O O O   Ti     |
 |      O  O        Ti  TiO    O |
 |  O Ti|   TO     O             |
 |    O |  O     Ti     Oi       |
 |  Ti  | Oi     O    O     O    |
 | O    O      Ti    Ti          |
 |      Ti          O     O      |
 |      |   O                    |

Positions:
   0 O      9.889324    1.911172    9.551683    ( 0.0000,  0.0000,  0.0000)
   1 O      4.718451    0.000000    9.551683    ( 0.0000,  0.0000,  0.0000)
   2 Ti     2.825504    0.000000   10.304640    ( 0.0000,  0.0000,  0.0000)
   3 Ti     7.996377    1.911172   10.304640    ( 0.0000,  0.0000,  0.0000)
   4 Ti     0.593255    1.911172   11.192561    ( 0.0000,  0.0000,  0.0000)
   5 Ti     5.764128    0.000000   11.192561    ( 0.0000,  0.0000,  0.0000)
   6 O      0.932557    0.000000   11.057597    ( 0.0000,  0.0000,  0.0000)
   7 O      6.103430    1.911172   11.057597    ( 0.0000,  0.0000,  0.0000)
   8 O      9.042055    1.911172   11.945518    ( 0.0000,  0.0000,  0.0000)
   9 O      3.871181    0.000000   11.945518    ( 0.0000,  0.0000,  0.0000)
  10 O      7.657075    0.000000   10.439604    ( 0.0000,  0.0000,  0.0000)
  11 O      2.486202    1.911172   10.439604    ( 0.0000,  0.0000,  0.0000)
  12 O      0.852021    1.854355   13.216964    ( 0.0000,  0.0000,  0.0000)
  13 O      6.055964   -0.016876   13.195886    ( 0.0000,  0.0000,  0.0000)
  14 Ti     4.315525   -0.016020   13.964464    ( 0.0000,  0.0000,  0.0000)
  15 Ti     9.247573    1.785166   13.839154    ( 0.0000,  0.0000,  0.0000)
  16 Ti     1.953474    1.818248   14.739834    ( 0.0000,  0.0000,  0.0000)
  17 Ti     7.043058   -0.027307   15.015153    ( 0.0000,  0.0000,  0.0000)
  18 O      2.280065   -0.020584   14.997995    ( 0.0000,  0.0000,  0.0000)
  19 O      7.495182    1.919910   14.655734    ( 0.0000,  0.0000,  0.0000)
  20 O     -0.111088    1.891834   15.592257    ( 0.0000,  0.0000,  0.0000)
  21 O      5.323778    0.016350   15.562838    ( 0.0000,  0.0000,  0.0000)
  22 O      8.962303   -0.037873   13.956181    ( 0.0000,  0.0000,  0.0000)
  23 O      3.686543    1.848961   13.978379    ( 0.0000,  0.0000,  0.0000)
  24 O      9.889324    5.733517    9.551683    ( 0.0000,  0.0000,  0.0000)
  25 O      4.718451    3.822345    9.551683    ( 0.0000,  0.0000,  0.0000)
  26 Ti     2.825504    3.822345   10.304640    ( 0.0000,  0.0000,  0.0000)
  27 Ti     7.996377    5.733517   10.304640    ( 0.0000,  0.0000,  0.0000)
  28 Ti     0.593255    5.733517   11.192561    ( 0.0000,  0.0000,  0.0000)
  29 Ti     5.764128    3.822345   11.192561    ( 0.0000,  0.0000,  0.0000)
  30 O      0.932557    3.822345   11.057597    ( 0.0000,  0.0000,  0.0000)
  31 O      6.103430    5.733517   11.057597    ( 0.0000,  0.0000,  0.0000)
  32 O      9.042055    5.733517   11.945518    ( 0.0000,  0.0000,  0.0000)
  33 O      3.871181    3.822345   11.945518    ( 0.0000,  0.0000,  0.0000)
  34 O      7.657075    3.822345   10.439604    ( 0.0000,  0.0000,  0.0000)
  35 O      2.486202    5.733517   10.439604    ( 0.0000,  0.0000,  0.0000)
  36 O      0.884845    5.750352   13.195816    ( 0.0000,  0.0000,  0.0000)
  37 O      6.022519    3.879389   13.217311    ( 0.0000,  0.0000,  0.0000)
  38 Ti     4.076769    3.948875   13.839277    ( 0.0000,  0.0000,  0.0000)
  39 Ti     9.486419    5.749663   13.963974    ( 0.0000,  0.0000,  0.0000)
  40 Ti     1.871973    5.761055   15.015846    ( 0.0000,  0.0000,  0.0000)
  41 Ti     7.124096    3.915354   14.740014    ( 0.0000,  0.0000,  0.0000)
  42 O      2.324175    3.813752   14.656399    ( 0.0000,  0.0000,  0.0000)
  43 O      7.449970    5.754033   14.998215    ( 0.0000,  0.0000,  0.0000)
  44 O      0.152673    5.717483   15.562860    ( 0.0000,  0.0000,  0.0000)
  45 O      5.059028    3.841134   15.593013    ( 0.0000,  0.0000,  0.0000)
  46 O      8.857020    3.884697   13.978330    ( 0.0000,  0.0000,  0.0000)
  47 O      3.791275    5.771445   13.956781    ( 0.0000,  0.0000,  0.0000)
  48 O      9.889324    9.555862    9.551683    ( 0.0000,  0.0000,  0.0000)
  49 O      4.718451    7.644690    9.551683    ( 0.0000,  0.0000,  0.0000)
  50 Ti     2.825504    7.644690   10.304640    ( 0.0000,  0.0000,  0.0000)
  51 Ti     7.996377    9.555862   10.304640    ( 0.0000,  0.0000,  0.0000)
  52 Ti     0.593255    9.555862   11.192561    ( 0.0000,  0.0000,  0.0000)
  53 Ti     5.764128    7.644690   11.192561    ( 0.0000,  0.0000,  0.0000)
  54 O      0.932557    7.644690   11.057597    ( 0.0000,  0.0000,  0.0000)
  55 O      6.103430    9.555862   11.057597    ( 0.0000,  0.0000,  0.0000)
  56 O      9.042055    9.555862   11.945518    ( 0.0000,  0.0000,  0.0000)
  57 O      3.871181    7.644690   11.945518    ( 0.0000,  0.0000,  0.0000)
  58 O      7.657075    7.644690   10.439604    ( 0.0000,  0.0000,  0.0000)
  59 O      2.486202    9.555862   10.439604    ( 0.0000,  0.0000,  0.0000)
[...]
  67 O      7.524883    9.521099   14.877131    ( 0.0000,  0.0000,  0.0000)
  68 O      0.148994    9.524614   15.488399    ( 0.0000,  0.0000,  0.0000)
  69 O      5.319697    7.676273   15.488213    ( 0.0000,  0.0000,  0.0000)
  70 O      8.952618    7.610536   14.062305    ( 0.0000,  0.0000,  0.0000)
  71 O      3.782507    9.589886   14.062152    ( 0.0000,  0.0000,  0.0000)
  72 V      3.737716    3.899052   16.842236    ( 0.0000,  0.0000,  0.0000)
  73 O      2.818345    5.370942   16.684061    ( 0.0000,  0.0000,  0.0000)
  74 O      2.670884    2.321498   16.713830    ( 0.0000,  0.0000,  0.0000)
  75 O      4.416157    3.847841   18.276055    ( 0.0000,  0.0000,  0.0000)
  76 V      8.910001    1.833504   16.842201    ( 0.0000,  0.0000,  0.0000)
  77 O      7.990353    0.362110   16.683581    ( 0.0000,  0.0000,  0.0000)
  78 O      7.842946    3.411539   16.714225    ( 0.0000,  0.0000,  0.0000)
  79 O      9.589668    1.883279   18.275412    ( 0.0000,  0.0000,  0.0000)
  80 H      7.897458    4.076511   17.426410    ( 0.0000,  0.0000,  0.0000)
  81 H      2.722955    1.657597   17.427337    ( 0.0000,  0.0000,  0.0000)

Unit cell:
           periodic     x           y           z      points  spacing
  1. axis:    yes   10.341746    0.000000    0.000000    54     0.1915
  2. axis:    yes   -0.000000   11.467000    0.000000    60     0.1911
  3. axis:    yes    0.000000    0.000000   23.497201   125     0.1880

  Lengths:  10.341746  11.467000  23.497201
  Angles:   90.000000  90.000000  90.000000

Effective grid spacing dv^(1/3) = 0.1902

                     log10-error:    total        iterations:
           time      wfs    density  energy       fermi  poisson
iter:   1  22:07:01  -4.73   +inf  -667.114164    1
iter:   2  22:07:09  -5.65  -4.18  -667.114163    1
iter:   3  22:07:17  -5.66  -4.19  -667.114097    1
iter:   4  22:07:26  -6.67  -4.40  -667.114100    1
iter:   5  22:07:34  -6.50  -4.40  -667.114103    1
iter:   6  22:07:42  -6.07  -4.46  -667.114090    1
iter:   7  22:07:50  -7.18  -4.75  -667.114085    1
iter:   8  22:07:58  -7.57  -4.93  -667.114084    1

Converged after 8 iterations.

Dipole moment: (-12.050165, -3.252076, -0.698934) |e|*Ang

Energy contributions relative to reference atoms: (reference = -719248.338470)

Kinetic:       +420.039258
Potential:     -561.786792
External:        +0.000000
XC:            -530.531271
Entropy (-ST):   -0.000365
Local:           +5.164904
Free energy:   -667.114266
Extrapolated:  -667.114084

Fermi level: -2.25486

Showing all kpts
 Kpt  Band  Eigenvalues  Occupancy
  0   318     -3.30998    0.99997
  0   319     -3.30030    0.99997
  0   320     -1.24866    0.00004
  0   321     -1.21353    0.00003

  1   318     -3.31000    0.99997
  1   319     -3.30029    0.99997
  1   320     -1.24867    0.00004
  1   321     -1.21351    0.00003

Forces in eV/Ang:
  0 O    -1.79011    0.00736    1.74534
  1 O    -1.76565    0.03788    1.52686
  2 Ti    4.11459   -0.25556    2.19540
  3 Ti    3.45033   -0.11395    1.62526
  4 Ti   -1.50453   -0.11015   -1.59777
  5 Ti   -2.08832   -0.23839   -1.26373
  6 O     0.84203    0.23561   -0.09895
  7 O     0.98030    0.25305   -0.04745
  8 O    -0.74055    0.10871   -1.06217
  9 O    -0.69727   -0.04237   -0.78177
 10 O    -0.27289    0.33702   -0.93071
 11 O    -0.40973    0.27242   -0.85932
 12 O    -0.00019   -0.00099    0.00262
 13 O    -0.00024   -0.00020   -0.00029
 14 Ti   -0.00123    0.00095    0.00091
 15 Ti    0.00223   -0.00017    0.00076
 16 Ti   -0.00026    0.00138   -0.00164
 17 Ti   -0.00362   -0.00164    0.00218
 18 O    -0.00009   -0.00159    0.00095
 19 O    -0.00178   -0.00102    0.00006
 20 O    -0.00012    0.00032    0.00220
 21 O     0.00013    0.00088    0.00244
 22 O    -0.00098   -0.00230    0.00182
 23 O    -0.00051   -0.00019   -0.00080
 24 O    -1.76652   -0.03779    1.52676
 25 O    -1.78861   -0.00731    1.74586
 26 Ti    3.45021    0.11322    1.62580
 27 Ti    4.11338    0.25621    2.19423
 28 Ti   -2.08673    0.23882   -1.26605
 29 Ti   -1.50673    0.10959   -1.59745
 30 O     0.98009   -0.25226   -0.04854
 31 O     0.84256   -0.23628   -0.09928
 32 O    -0.69879    0.04252   -0.78244
 33 O    -0.74068   -0.10806   -1.06038
 34 O    -0.40953   -0.27195   -0.85877
 35 O    -0.27322   -0.33648   -0.93114
 36 O     0.00150    0.00161    0.00269
 37 O     0.00113    0.00034    0.00154
 38 Ti   -0.00113   -0.00099    0.00325
 39 Ti   -0.00178    0.00022    0.00543
 40 Ti   -0.00213   -0.00082    0.00126
 41 Ti    0.00053    0.00107    0.00420
 42 O     0.00229   -0.00083   -0.00391
 43 O     0.00028    0.00070    0.00184
 44 O    -0.00135   -0.00085   -0.00130
 45 O     0.00270    0.00062   -0.00099
 46 O     0.00039    0.00101   -0.00035
 47 O    -0.00111    0.00283   -0.00050
 48 O    -1.74614    0.02570    1.55942
 49 O    -1.74645   -0.02588    1.55901
 50 Ti    4.00062    0.16559    2.24414
 51 Ti    4.00101   -0.16548    2.24473
 52 Ti   -2.26945   -0.11371   -2.26774
 53 Ti   -2.26914    0.11436   -2.27032
 54 O     0.90262   -0.01236   -0.11816
 55 O     0.90301    0.01164   -0.11786
 56 O    -0.49483   -0.13307   -0.51491
 57 O    -0.49616    0.13300   -0.51566
 58 O    -0.34705   -0.05420   -0.91187
 59 O    -0.34740    0.05326   -0.91199
[...]
 67 O     0.00118   -0.00230    0.00160
 68 O     0.00009    0.00045    0.00264
 69 O     0.00210    0.00055    0.00346
 70 O     0.00105    0.00086    0.00120
 71 O    -0.00305    0.00199    0.00146
 72 V     0.00328    0.00271    0.00342
 73 O     0.00072   -0.00081   -0.00015
 74 O    -0.00087   -0.00189    0.00531
 75 O    -0.00033    0.00025   -0.00337
 76 V    -0.00044    0.00325    0.00304
 77 O    -0.00010    0.00023   -0.00135
 78 O    -0.00303   -0.00220   -0.00263
 79 O    -0.00125    0.00192   -0.00147
 80 H     0.00062    0.00482    0.00472
 81 H    -0.00026   -0.00208    0.00089