User:   siva@s91n63.grendel.cscaa.dk
Date:   Fri Feb 28 22:03:42 2020
Arch:   x86_64
Pid:    50853
Python: 3.6.3
gpaw:   /home/siva/gpaw-1.5.1/gpaw
_gpaw:  /home/siva/gpaw-1.5.1/build/bin.linux-x86_64-3.6/gpaw-python
ase:    /home/siva/env1.5/lib/python3.6/site-packages/ase (version 3.17.0)
numpy:  /home/siva/env1.5/lib/python3.6/site-packages/numpy (version 1.16.0)
scipy:  /home/siva/env1.5/lib/python3.6/site-packages/scipy (version 1.2.0)
units:  Angstrom and eV
cores:  36
Extra parameters: {'blacs': True}

Input parameters:
  basis: dzp
  kpts: [2 2 1]
  mode: {ecut: 500.0,
         gammacentered: False,
         name: pw}
  xc: PBE

System changes: positions, numbers, cell, pbc, initial_charges, initial_magmoms

Initialize ...

O-setup:
  name: Oxygen
  id: 32ecd46bf208036f09c70b0ec9a88b78
  Z: 8
  valence: 6
  core: 2
  charge: 0.0
  file: /home/wido/sw/gpaw/basis/gpaw-setups-0.9.20000/O.PBE.gz
  cutoffs: 0.67(comp), 1.17(filt), 0.83(core), lmax=2
  valence states:
                energy  radius
    2s(2.00)   -23.961   0.688
    2p(4.00)    -9.029   0.598
    *s           3.251   0.688
    *p          18.182   0.598
    *d           0.000   0.619

  LCAO basis set for O:
    Name: dzp
    File: /home/wido/sw/gpaw/basis/gpaw-setups-0.9.20000/O.dzp.basis.gz
    Number of radial functions: 5
    Number of spherical harmonics: 13
      l=0, rc=4.3438 Bohr: 2s-sz confined orbital
      l=1, rc=5.3906 Bohr: 2p-sz confined orbital
      l=0, rc=2.2969 Bohr: 2s-dz split-valence wave
      l=1, rc=2.8906 Bohr: 2p-dz split-valence wave
      l=2, rc=5.3906 Bohr: d-type Gaussian polarization

Ti-setup:
  name: Titanium
  id: d282db07e62ae71292040bf25b25ccdd
  Z: 22
  valence: 12
  core: 10
  charge: 0.0
  file: /home/wido/sw/gpaw/basis/gpaw-setups-0.9.20000/Ti.PBE.gz
  cutoffs: 1.22(comp), 2.23(filt), 1.02(core), lmax=2
  valence states:
                energy  radius
    3s(2.00)   -62.623   1.270
    4s(2.00)    -4.466   1.270
    3p(6.00)   -38.862   1.058
    4p(0.00)    -1.466   1.058
    3d(2.00)    -4.258   1.058
    *d          22.953   1.058

  LCAO basis set for Ti:
    Name: dzp
    File: /home/wido/sw/gpaw/basis/gpaw-setups-0.9.20000/Ti.dzp.basis.gz
    Number of radial functions: 11
    Number of spherical harmonics: 29
      l=0, rc=3.4375 Bohr: 3s-sz confined orbital
      l=0, rc=9.9062 Bohr: 4s-sz confined orbital
      l=1, rc=3.8906 Bohr: 3p-sz confined orbital
      l=1, rc=13.1094 Bohr: 4p-sz confined orbital
      l=2, rc=6.6250 Bohr: 3d-sz confined orbital
      l=0, rc=2.1406 Bohr: 3s-dz split-valence wave
      l=0, rc=6.0156 Bohr: 4s-dz split-valence wave
      l=1, rc=2.3125 Bohr: 3p-dz split-valence wave
      l=1, rc=8.1094 Bohr: 4p-dz split-valence wave
      l=2, rc=3.8594 Bohr: 3d-dz split-valence wave
      l=1, rc=9.9062 Bohr: p-type Gaussian polarization

V-setup:
  name: Vanadium
  id: a8354638d66c808f8c867a10b63fd727
  Z: 23
  valence: 13
  core: 10
  charge: 0.0
  file: /home/wido/sw/gpaw/basis/gpaw-setups-0.9.20000/V.PBE.gz
  cutoffs: 1.19(comp), 2.14(filt), 0.96(core), lmax=2
  valence states:
                energy  radius
    3s(2.00)   -70.222   1.254
    4s(2.00)    -4.702   1.254
    3p(6.00)   -44.043   1.281
    4p(0.00)    -1.444   1.281
    3d(3.00)    -5.164   1.169
    *d          22.047   1.169

  LCAO basis set for V:
    Name: dzp
    File: /home/wido/sw/gpaw/basis/gpaw-setups-0.9.20000/V.dzp.basis.gz
    Number of radial functions: 11
    Number of spherical harmonics: 29
      l=0, rc=3.2656 Bohr: 3s-sz confined orbital
      l=0, rc=9.5312 Bohr: 4s-sz confined orbital
      l=1, rc=3.6719 Bohr: 3p-sz confined orbital
      l=1, rc=12.8750 Bohr: 4p-sz confined orbital
      l=2, rc=6.0938 Bohr: 3d-sz confined orbital
      l=0, rc=2.0625 Bohr: 3s-dz split-valence wave
      l=0, rc=5.7656 Bohr: 4s-dz split-valence wave
      l=1, rc=2.4062 Bohr: 3p-dz split-valence wave
      l=1, rc=7.8906 Bohr: 4p-dz split-valence wave
      l=2, rc=3.6562 Bohr: 3d-dz split-valence wave
      l=1, rc=9.5312 Bohr: p-type Gaussian polarization

H-setup:
  name: Hydrogen
  id: d65de229564ff8ea4db303e23b6d1ecf
  Z: 1
  valence: 1
  core: 0
  charge: 0.0
  file: /home/wido/sw/gpaw/basis/gpaw-setups-0.9.20000/H.PBE.gz
  cutoffs: 0.48(comp), 0.85(filt), 0.53(core), lmax=2
  valence states:
                energy  radius
    1s(1.00)    -6.494   0.476
    *s          20.717   0.476
    *p           0.000   0.476

  LCAO basis set for H:
    Name: dzp
    File: /home/wido/sw/gpaw/basis/gpaw-setups-0.9.20000/H.dzp.basis.gz
    Number of radial functions: 3
    Number of spherical harmonics: 5
      l=0, rc=6.4219 Bohr: 1s-sz confined orbital
      l=0, rc=3.6094 Bohr: 1s-dz split-valence wave
      l=1, rc=6.4219 Bohr: p-type Gaussian polarization

Reference energy: -935653.237240

Spin-paired calculation

Occupation numbers:
  Fermi-Dirac: width=0.1000 eV

Convergence criteria:
  Maximum total energy change: 0.0005 eV / electron
  Maximum integral of absolute density change: 0.0001 electrons
  Maximum integral of absolute eigenstate change: 4e-08 eV^2
  Maximum number of iterations: 333

Symmetries present (total): 1

  ( 1  0  0)
  ( 0  1  0)
  ( 0  0  1)

4 k-points: 2 x 2 x 1 Monkhorst-Pack grid
2 k-points in the irreducible part of the Brillouin zone
       k-points in crystal coordinates                weights
   0:     0.25000000   -0.25000000    0.00000000          2/4
   1:     0.25000000    0.25000000    0.00000000          2/4

Wave functions: Plane wave expansion
  Cutoff energy: 500.000 eV
  Number of coefficients (min, max): 94343, 94343
  Pulay-stress correction: 0.000000 eV/Ang^3 (de/decut=0.000000)
  Using FFTW library
  ScaLapack parameters: grid=1x1, blocksize=None
  Wavefunction extrapolation:
    Improved wavefunction reuse through dual PAW basis

Eigensolver
   Davidson(niter=2, smin=None, normalize=True)

Densities:
  Coarse grid: 54*80*125 grid
  Fine grid: 108*160*250 grid
  Total Charge: 0.000000

Density mixing:
  Method: separate
  Backend: pulay
  Linear mixing parameter: 0.05
  Mixing with 5 old densities
  Damping of long wave oscillations: 50

Hamiltonian:
  XC and Coulomb potentials evaluated on a 108*160*250 grid
  Using the PBE Exchange-Correlation functional

XC parameters: PBE with 2 nearest neighbor stencil

Total number of cores used: 36
Parallelization over k-points: 2
Domain decomposition: 2 x 3 x 3

Number of atoms: 105
Number of atomic orbitals: 1893
Number of bands in calculation: 500
Bands to converge: occupied states only
Number of valence electrons: 826

... initialized

Initializing position-dependent things.

Density initialized from atomic densities
Creating initial wave functions:
  500 bands from LCAO basis set

 |        |                    O   |
 |        O    H  O         O      |
 |        |   Oi      O  H  OV     |
 |      O |   O V  O      Oi     Ti|
 |        | TO     Oi     O   O    |
 |   O    |      O     OTi    TiO  |
 |        OTO     O         O      |
 |        Oi  O TiO  OTi O   Ti    |
 |  O  O  |O   Ti     Ti   OTiO  O |
 |      Tii OO OO    OO   O        |
 |      OO|       OTii    Tii      |
 |   OTi  | Tii     O   OO     O   |
 |    O   |O     OTi     Oi        |
 |  Ti    TO   O  O    O     O     |
 |  O    O|     Ti    Ti           |
 |       Ti         O      O       |
 |        |  O                     |

Positions:
   0 O      9.974517    2.862499    7.395923    ( 0.0000,  0.0000,  0.0000)
   1 O      4.751576    0.970856    7.433844    ( 0.0000,  0.0000,  0.0000)
   2 Ti     2.973752    0.965511    8.331948    ( 0.0000,  0.0000,  0.0000)
   3 Ti     8.189404    2.803522    8.288172    ( 0.0000,  0.0000,  0.0000)
   4 Ti     0.613369    2.836809    8.994488    ( 0.0000,  0.0000,  0.0000)
   5 Ti     5.856682    0.938662    8.958328    ( 0.0000,  0.0000,  0.0000)
   6 O      1.063899    0.953977    8.954538    ( 0.0000,  0.0000,  0.0000)
   7 O      6.332739    2.842687    8.933688    ( 0.0000,  0.0000,  0.0000)
   8 O      9.254147    2.761528    9.821154    ( 0.0000,  0.0000,  0.0000)
   9 O      4.054529    0.983467    9.850791    ( 0.0000,  0.0000,  0.0000)
  10 O      7.750782    0.923741    8.323928    ( 0.0000,  0.0000,  0.0000)
  11 O      2.518424    2.887861    8.350100    ( 0.0000,  0.0000,  0.0000)
  12 O      1.092125    2.889953   11.034028    ( 0.0000,  0.0000,  0.0000)
  13 O      6.267596    0.961638   10.990229    ( 0.0000,  0.0000,  0.0000)
  14 Ti     4.405045    0.958723   11.964861    ( 0.0000,  0.0000,  0.0000)
  15 Ti     9.578030    2.827708   11.972631    ( 0.0000,  0.0000,  0.0000)
  16 Ti     2.017050    2.855324   12.556724    ( 0.0000,  0.0000,  0.0000)
  17 Ti     7.203902    0.939632   12.510229    ( 0.0000,  0.0000,  0.0000)
  18 O      2.551413    0.959618   12.759471    ( 0.0000,  0.0000,  0.0000)
  19 O      7.734802    2.844509   12.802438    ( 0.0000,  0.0000,  0.0000)
  20 O      0.368697    2.852199   13.409892    ( 0.0000,  0.0000,  0.0000)
  21 O      5.573617    0.952938   13.382263    ( 0.0000,  0.0000,  0.0000)
  22 O      9.179299    0.943850   11.982475    ( 0.0000,  0.0000,  0.0000)
  23 O      3.985051    2.897415   12.007947    ( 0.0000,  0.0000,  0.0000)
  24 O      9.990889    6.696232    7.341894    ( 0.0000,  0.0000,  0.0000)
  25 O      4.511960    4.787917    8.184082    ( 0.0000,  0.0000,  0.0000)
  26 Ti     2.724858    4.779771    7.960807    ( 0.0000,  0.0000,  0.0000)
  27 Ti     8.145479    6.707698    8.192011    ( 0.0000,  0.0000,  0.0000)
  28 Ti     0.630398    6.695439    9.077253    ( 0.0000,  0.0000,  0.0000)
  29 Ti     6.062248    4.766294    9.148169    ( 0.0000,  0.0000,  0.0000)
  30 O      1.023957    4.767147    8.931551    ( 0.0000,  0.0000,  0.0000)
  31 O      6.358432    6.708779    8.938070    ( 0.0000,  0.0000,  0.0000)
  32 O      9.235162    6.764411    9.751167    ( 0.0000,  0.0000,  0.0000)
  33 O      7.850578    4.773562    8.386917    ( 0.0000,  0.0000,  0.0000)
  34 O      2.498268    6.663844    8.333080    ( 0.0000,  0.0000,  0.0000)
  35 O      0.998194    6.556366   11.110401    ( 0.0000,  0.0000,  0.0000)
  36 O      5.792539    4.759975   10.935232    ( 0.0000,  0.0000,  0.0000)
  37 Ti     4.472828    4.745426   12.270841    ( 0.0000,  0.0000,  0.0000)
  38 Ti     9.445396    6.660188   11.716908    ( 0.0000,  0.0000,  0.0000)
  39 Ti     2.112427    6.627521   12.619916    ( 0.0000,  0.0000,  0.0000)
  40 Ti     7.490663    4.769151   13.132903    ( 0.0000,  0.0000,  0.0000)
  41 O      2.518271    4.741339   12.955585    ( 0.0000,  0.0000,  0.0000)
  42 O      7.665225    6.667639   12.589831    ( 0.0000,  0.0000,  0.0000)
  43 O      0.114947    6.730047   13.480656    ( 0.0000,  0.0000,  0.0000)
  44 O      5.666336    4.793749   13.596222    ( 0.0000,  0.0000,  0.0000)
  45 O      9.094996    4.757329   11.868554    ( 0.0000,  0.0000,  0.0000)
  46 O      3.864855    6.572592   11.861983    ( 0.0000,  0.0000,  0.0000)
  47 O      9.941219   10.526766    7.424162    ( 0.0000,  0.0000,  0.0000)
  48 O      4.793812    8.598035    7.389240    ( 0.0000,  0.0000,  0.0000)
  49 Ti     2.924043    8.598447    8.231525    ( 0.0000,  0.0000,  0.0000)
[...]
 |   OTi  | Tii     O   OO     O   |
 |    O   |O     OTi     Oi        |
 |  Ti    TO   O  O    O     O     |
 |  O    O|     Ti    Ti           |
 |       Ti         O      O       |
 |        |  O                     |

[...]

Density initialized from wave functions
 |        |                    O   |
 |        O    H  O         O      |
 |        |   Oi      O  H  OV     |
 |     O  |   O V  O      Oi     Ti|
 |        | TO     Oi     O    O   |
 |    O   | O    O     OTi    TiO  |
 |        Tii     O    O    O      |
 |        O     TiO  O   O  Tii    |
 |  O  O  |O  Tii    Tii   O  O  O |
 |      Tii OO OO    OO   O        |
 |      OO|       OTii    Tii      |
 |   OTi  | Tii     O   OO     O   |
 |    O   |O     OTi     Oi        |
 |  Ti    TO   O  O    O     O     |
 |  O    O|     Ti    Ti           |
 |       Ti         O      O       |
 |        |  O                     |

[...]

Density initialized from wave functions
 |        |                    O   |
 |        O    H  O         O      |
 |        |   Oi      O  H  OV     |
 |     O  |   O V  O      Oi     Ti|
 |        | TO     Oi     O    O   |
 |    O   |      O     OTi    TiO  |
 |        TiO     O    O    O      |
 |        O     TiO  O   O  Tii    |
 |  O  O  |O  Tii    Tii   O  O  O |
 |      Tii OO OO    OO   O        |
 |      OO|       OTii    Tii      |
 |   OTi  | Tii     O   OO     O   |
 |    O   |O     OTi     Oi        |
 |  Ti    TO   O  O    O     O     |
 |  O    O|     Ti    Ti           |
 |       Ti         O      O       |
 |        |  O                     |

[...]

Density initialized from wave functions
 |        |                    O   |
 |        O    H O          O      |
 |        |   Oi      O  H  OV     |
 |     O  |   O V  O      Oi     Ti|
 |        | TO     Oi     O    O   |
 |    O   |      O     OTi    TiO  |
 |        TiO     O    O    O      |
 |        O     TiO  O   O  Tii    |
 |  O  O  |O  Tii    Tii   O  O  O |
 |      Tii OO OO    OO   O        |
 |      OO|       OTii    Tii      |
 |   OTi  | Tii     O   OO     O   |
 |    O   |O     OTi     Oi        |
 |  Ti    TO   O  O    O     O     |
 |  O    O|     Ti    Ti           |
 |       Ti         O      O       |
 |        |  O                     |

[...]

Density initialized from wave functions
 |        |                    O   |
 |        O    H O          O      |
 |        |   Oi      O  H  OV     |
 |     O  |   O V  O      Oi     Ti|
 |        | OOi    Oi     O    O   |
 |    O   |      O     OTi    TiO  |
 |        TiO     O    O    O      |
 |        O     TiO  O   O  Tii    |
 |  O  O  |O  Tii    Tii   O  O  O |
 |      Tii OO OO    OO   O        |
 |      OO|       OTii    Tii      |
 |   OTi  | Tii     O   OO     O   |
 |    O   |O     OTi     Oi        |
 |  Ti    TO   O  O    O     O     |
 |  O    O|     Ti    Ti           |
 |       Ti         O      O       |
 |        |  O                     |

[...]

Density initialized from wave functions
 |        |                    O   |
 |        O    H O          O      |
 |        |   Oi      O  H  OV     |
 |     O  |   O V  O      Oi     Ti|
 |        | OOi    Oi     O   O    |
 |    O   |      O     OTi    TiO  |
 |        TiO     O    O    O      |
 |        O     TiO  O   O  Tii    |
 |  O  O  |O  Tii    Tii   O  O  O |
 |      Tii OO OO    OO   O        |
 |      OO|       OTii    Tii      |
 |   OTi  | Tii     O   OO     O   |
 |    O   |O     OTi     Oi        |
 |  Ti    TO   O  O    O     O     |
 |  O    O|     Ti    Ti           |
 |       Ti         O      O       |
 |        |  O                     |

[...]

Density initialized from wave functions
 |        |                    O   |
 |        O    H O          O      |
 |        |   Oi      O  H  OV     |
 |     O  |   O V  O      Oi     Ti|
 |        | OOi    Oi     O   O    |
 |    O   |      O     OTi    TiO  |
 |        TiO     O    O    O      |
 |        O     TiO  O   O  Tii    |
 |  O  O  |O  Tii    Tii   O  O  O |
 |      Tii  O OO    OO   O        |
 |      OO| O     OTii    Tii      |
 |   OTi  | Tii     O   OO     O   |
 |    O   |O     OTi     Oi        |
 |  Ti    TO   O  O    O     O     |
 |  O    O|     Ti    Ti           |
 |       Ti         O      O       |
 |        |  O                     |

[...]

Density initialized from wave functions
 |        |                    O   |
 |        O    H O          O      |
 |        |   Oi      O  H  OV     |
 |     O  |   O V  O      Oi     Ti|
 |        | OOi    Oi     O    O   |
 |    O   |      O     OTi    TiO  |
 |        TiO     O    O    O      |
 |        O     TiO  O   O  Tii    |
 |  O  O  |O  Tii    Tii   O  O  O |
 |      Tii  O OO    OO   O        |
 |      OO| O     OTii    Tii      |
 |   OTi  | Tii     O   OO     O   |
 |    O   |O     OTi     Oi        |
 |  Ti    TO   O  O    O     O     |
 |  O    O|     Ti    Ti           |
 |       Ti         O      O       |
 |        |  O                     |

[...]

Density initialized from wave functions
 |        |                    O   |
 |        O    H O          O      |
 |        |   Oi      O  H  OV     |
 |     O  |   O V  O      Oi     Ti|
 |        | OTi    Oi     O   O    |
 |    O   |      O     OTi    TiO  |
 |        TiO     O    O    O      |
 |        O     TiO  O   O  Tii    |
 |  O  O  |O  Tii    Tii   O  O  O |
 |      Tii  O OO    OO   O        |
 |      OO| O     OTii    Tii      |
 |   OTi  | Tii     O   OO     O   |
 |    O   |O     OTi     Oi        |
 |  Ti    TO   O  O    O     O     |
 |  O    O|     Ti    Ti           |
 |       Ti         O      O       |
 |        |  O                     |

[...]

System changes: positions

Initializing position-dependent things.

Density initialized from wave functions
 |        |                    O   |
 |        O   H  O          O      |
 |        |   Oi      O  H  OV     |
 |     O  |   O V  O      Oi     Ti|
 |        | OTi    Oi     O   O    |
 |    O   |      O     OTi    TiO  |
 |        TiO     O    O    O      |
 |        O     TiO  O   O  Tii    |
 |  O  O  |O  Tii    Tii   O  O  O |
 |      Tii  O OO    OO   O        |
 |      OO| O     OTii    Tii      |
 |   OTi  | Tii     O   OO     O   |
 |    O   |O     OTi     Oi        |
 |  Ti    TO   O  O    O     O     |
 |  O    O|     Ti    Ti           |
 |       Ti         O      O       |
 |        |  O                     |

Positions:
   0 O      9.974517    2.862499    7.395923    ( 0.0000,  0.0000,  0.0000)
   1 O      4.751576    0.970856    7.433844    ( 0.0000,  0.0000,  0.0000)
   2 Ti     2.973752    0.965511    8.331948    ( 0.0000,  0.0000,  0.0000)
   3 Ti     8.189404    2.803522    8.288172    ( 0.0000,  0.0000,  0.0000)
   4 Ti     0.613369    2.836809    8.994488    ( 0.0000,  0.0000,  0.0000)
   5 Ti     5.856682    0.938662    8.958328    ( 0.0000,  0.0000,  0.0000)
   6 O      1.063899    0.953977    8.954538    ( 0.0000,  0.0000,  0.0000)
   7 O      6.332739    2.842687    8.933688    ( 0.0000,  0.0000,  0.0000)
   8 O      9.254147    2.761528    9.821154    ( 0.0000,  0.0000,  0.0000)
   9 O      4.054529    0.983467    9.850791    ( 0.0000,  0.0000,  0.0000)
  10 O      7.750782    0.923741    8.323928    ( 0.0000,  0.0000,  0.0000)
  11 O      2.518424    2.887861    8.350100    ( 0.0000,  0.0000,  0.0000)
  12 O      1.082896    2.890733   11.036937    ( 0.0000,  0.0000,  0.0000)
  13 O      6.269690    0.961120   10.980466    ( 0.0000,  0.0000,  0.0000)
  14 Ti     4.400800    0.953404   11.946780    ( 0.0000,  0.0000,  0.0000)
  15 Ti     9.584485    2.854591   11.982130    ( 0.0000,  0.0000,  0.0000)
  16 Ti     2.015550    2.846225   12.552474    ( 0.0000,  0.0000,  0.0000)
  17 Ti     7.198548    0.973510   12.504901    ( 0.0000,  0.0000,  0.0000)
  18 O      2.564064    0.976852   12.756289    ( 0.0000,  0.0000,  0.0000)
  19 O      7.714534    2.893084   12.743366    ( 0.0000,  0.0000,  0.0000)
  20 O      0.370466    2.869654   13.414682    ( 0.0000,  0.0000,  0.0000)
  21 O      5.562386    1.007818   13.368691    ( 0.0000,  0.0000,  0.0000)
  22 O      9.173320    0.976278   11.976508    ( 0.0000,  0.0000,  0.0000)
  23 O      3.973123    2.928961   11.885638    ( 0.0000,  0.0000,  0.0000)
  24 O      9.990889    6.696232    7.341894    ( 0.0000,  0.0000,  0.0000)
  25 O      4.511960    4.787917    8.184082    ( 0.0000,  0.0000,  0.0000)
  26 Ti     2.724858    4.779771    7.960807    ( 0.0000,  0.0000,  0.0000)
  27 Ti     8.145479    6.707698    8.192011    ( 0.0000,  0.0000,  0.0000)
  28 Ti     0.630398    6.695439    9.077253    ( 0.0000,  0.0000,  0.0000)
  29 Ti     6.062248    4.766294    9.148169    ( 0.0000,  0.0000,  0.0000)
  30 O      1.023957    4.767147    8.931551    ( 0.0000,  0.0000,  0.0000)
  31 O      6.358432    6.708779    8.938070    ( 0.0000,  0.0000,  0.0000)
  32 O      9.235162    6.764411    9.751167    ( 0.0000,  0.0000,  0.0000)
  33 O      7.850578    4.773562    8.386917    ( 0.0000,  0.0000,  0.0000)
  34 O      2.498268    6.663844    8.333080    ( 0.0000,  0.0000,  0.0000)
  35 O      1.040433    6.584084   11.106183    ( 0.0000,  0.0000,  0.0000)
  36 O      6.014686    4.759041   11.047591    ( 0.0000,  0.0000,  0.0000)
  37 Ti     4.372391    4.736113   12.347729    ( 0.0000,  0.0000,  0.0000)
  38 Ti     9.635943    6.686074   11.892644    ( 0.0000,  0.0000,  0.0000)
  39 Ti     2.011564    6.659728   12.858779    ( 0.0000,  0.0000,  0.0000)
  40 Ti     7.230618    4.785782   12.496842    ( 0.0000,  0.0000,  0.0000)
  41 O      2.529606    4.723065   12.989109    ( 0.0000,  0.0000,  0.0000)
  42 O      7.658156    6.639628   12.764795    ( 0.0000,  0.0000,  0.0000)
  43 O      0.293577    6.716760   13.463242    ( 0.0000,  0.0000,  0.0000)
  44 O      5.673842    4.751829   13.572927    ( 0.0000,  0.0000,  0.0000)
  45 O      9.112470    4.782346   11.848839    ( 0.0000,  0.0000,  0.0000)
  46 O      3.963404    6.538494   11.810129    ( 0.0000,  0.0000,  0.0000)
  47 O      9.941219   10.526766    7.424162    ( 0.0000,  0.0000,  0.0000)
  48 O      4.793812    8.598035    7.389240    ( 0.0000,  0.0000,  0.0000)
  49 Ti     2.924043    8.598447    8.231525    ( 0.0000,  0.0000,  0.0000)
  50 Ti     8.168624   10.568713    8.307193    ( 0.0000,  0.0000,  0.0000)
  51 Ti     0.689842   10.519812    9.160804    ( 0.0000,  0.0000,  0.0000)
  52 Ti     5.895270    8.633917    8.910762    ( 0.0000,  0.0000,  0.0000)
  53 O      1.085423    8.597422    8.995679    ( 0.0000,  0.0000,  0.0000)
  54 O      6.252646   10.528029    8.921193    ( 0.0000,  0.0000,  0.0000)
  55 O      9.220059   10.568411    9.844708    ( 0.0000,  0.0000,  0.0000)
  56 O      4.059029    8.507535    9.748930    ( 0.0000,  0.0000,  0.0000)
  57 O      7.758726    8.628199    8.273162    ( 0.0000,  0.0000,  0.0000)
  58 O      2.566398   10.490594    8.371621    ( 0.0000,  0.0000,  0.0000)
  59 O      1.023433   10.549373   11.124163    ( 0.0000,  0.0000,  0.0000)
[...]
  90 O      7.714836   14.378809   12.774477    ( 0.0000,  0.0000,  0.0000)
  91 O      0.403503   14.352117   13.392393    ( 0.0000,  0.0000,  0.0000)
  92 O      5.509273   12.410763   13.469854    ( 0.0000,  0.0000,  0.0000)
  93 O      9.162858   12.455820   11.880104    ( 0.0000,  0.0000,  0.0000)
  94 O      4.011497   14.347858   11.985713    ( 0.0000,  0.0000,  0.0000)
  95 V      3.953060    8.508352   14.685227    ( 0.0000,  0.0000,  0.0000)
  96 O      2.883474   10.090876   14.526850    ( 0.0000,  0.0000,  0.0000)
  97 O      3.014464    7.063883   14.518992    ( 0.0000,  0.0000,  0.0000)
  98 O      4.612162    8.566939   16.130168    ( 0.0000,  0.0000,  0.0000)
  99 V      9.073725   10.568595   14.758375    ( 0.0000,  0.0000,  0.0000)
 100 O      9.733216   10.542433   16.203284    ( 0.0000,  0.0000,  0.0000)
 101 O      8.000916    9.004589   14.582996    ( 0.0000,  0.0000,  0.0000)
 102 O      8.160073   12.027220   14.526641    ( 0.0000,  0.0000,  0.0000)
 103 H      7.988563    8.355384   15.311332    ( 0.0000,  0.0000,  0.0000)
 104 H      2.909528   10.749086   15.247234    ( 0.0000,  0.0000,  0.0000)

Unit cell:
           periodic     x           y           z      points  spacing
  1. axis:    yes   10.341746    0.000000    0.000000    54     0.1915
  2. axis:    yes   -0.000000   15.289380    0.000000    80     0.1911
  3. axis:    yes    0.000000    0.000000   23.497201   125     0.1880

  Lengths:  10.341746  15.289380  23.497201
  Angles:   90.000000  90.000000  90.000000

Effective grid spacing dv^(1/3) = 0.1902

                     log10-error:    total        iterations:
           time      wfs    density  energy       fermi  poisson
iter:   1  04:48:10  -5.50   +inf  -859.484251    3
iter:   2  04:48:25  -6.35  -4.37  -859.484982    3
iter:   3  04:48:40  -6.94  -4.47  -859.484845    2
iter:   4  04:48:55  -6.99  -4.58  -859.484987    2
iter:   5  04:49:10  -7.10  -4.70  -859.484956    2
iter:   6  04:49:25  -7.12  -4.85  -859.484931    2
iter:   7  04:49:40  -7.58  -4.99  -859.484954    2

Converged after 7 iterations.

Dipole moment: (-3.371415, 1.184890, -0.817824) |e|*Ang

Energy contributions relative to reference atoms: (reference = -935653.237240)

Kinetic:       +622.412832
Potential:     -789.092797
External:        +0.000000
XC:            -698.890710
Entropy (-ST):   -0.557585
Local:           +6.364513
Free energy:   -859.763747
Extrapolated:  -859.484954

Fermi level: -1.20279

Showing all kpts
 Kpt  Band  Eigenvalues  Occupancy
  0   411     -3.32191    1.00000
  0   412     -1.12742    0.32003
  0   413     -1.10126    0.26595
  0   414     -1.04881    0.17657

  1   411     -3.32265    1.00000
  1   412     -1.11874    0.30143
  1   413     -1.10684    0.27699
  1   414     -1.05682    0.18852

Forces in eV/Ang:
  0 O    -1.56688   -0.10617    1.23877
  1 O    -1.01338    0.03147    1.25303
  2 Ti    2.45240    0.02818    1.11031
  3 Ti    2.87363    0.14454    0.69526
  4 Ti   -0.03325    0.17671   -1.45750
  5 Ti   -1.79720   -0.05558   -1.10459
  6 O     0.31246   -0.09154   -0.01265
  7 O    -0.05648    0.69660   -0.04669
  8 O    -1.49298    0.08359    0.28318
  9 O    -0.67577   -0.11041   -0.05571
 10 O     0.16759    0.48371   -1.05069
 11 O     0.45980   -0.20960   -1.01717
 12 O    -0.00176   -0.00032    0.00037
 13 O     0.00056   -0.00037   -0.00170
 14 Ti   -0.00121    0.00077   -0.00144
 15 Ti   -0.00088   -0.00008   -0.00080
 16 Ti   -0.00141    0.00007    0.00018
 17 Ti   -0.00059   -0.00094    0.00008
 18 O     0.00027    0.00090    0.00012
 19 O    -0.00155   -0.00039   -0.00131
 20 O    -0.00222   -0.00142   -0.00118
 21 O    -0.00131    0.00246   -0.00139
 22 O    -0.00203   -0.00080    0.00104
 23 O    -0.00164    0.00141   -0.00458
 24 O    -1.59884   -0.05829    1.94880
 25 O     0.52639   -0.03826    0.17868
 26 Ti   -0.67956    0.09529    0.76692
 27 Ti    4.29374    0.70148    0.80365
 28 Ti   -0.65855   -0.08791   -1.99996
 29 Ti    0.03137    0.21030   -0.15555
 30 O     0.28867   -0.01423    0.03656
 31 O    -0.46612   -0.79530    0.00176
 32 O    -1.54912   -0.13951    0.67162
 33 O    -0.65902   -0.35704   -0.77158
 34 O     0.60257    0.16447   -1.16538
 35 O    -0.00125    0.00131    0.00070
 36 O     0.00094    0.00099   -0.00056
 37 Ti   -0.00054   -0.00026   -0.00134
 38 Ti   -0.00043   -0.00046   -0.00003
 39 Ti   -0.00005    0.00050    0.00006
 40 Ti   -0.00081    0.00040    0.00001
 41 O     0.00011   -0.00183    0.00197
 42 O    -0.00135    0.00021    0.00056
 43 O    -0.00062   -0.00021    0.00065
 44 O    -0.00131   -0.00146   -0.00124
 45 O    -0.00124   -0.00039    0.00003
 46 O    -0.00186   -0.00077    0.00107
 47 O    -1.52847    0.03457    2.31715
 48 O    -0.97077   -0.00836    1.23327
 49 Ti    2.45601   -0.23145    0.95595
 50 Ti    3.17624   -0.20224   -0.32430
 51 Ti   -0.61098   -0.08912   -2.60868
 52 Ti   -1.33705    0.13107   -1.23582
 53 O     0.26033    0.28394    0.11780
 54 O     0.04850   -0.08598    0.03338
 55 O    -0.89420   -0.20577    0.28220
 56 O    -0.88448    0.09235    0.14650
 57 O     0.12061    0.11861   -0.79759
 58 O     0.11027    0.11331   -0.65537
 59 O    -0.00060    0.00056    0.00079
[...]
 90 O    -0.00155   -0.00086   -0.00074
 91 O     0.00094   -0.00125    0.00090
 92 O    -0.00033   -0.00031   -0.00074
 93 O    -0.00049    0.00007   -0.00068
 94 O     0.00044    0.00081   -0.00089
 95 V    -0.00008   -0.00121   -0.00299
 96 O    -0.00385   -0.00137   -0.00404
 97 O    -0.00160    0.00008    0.00057
 98 O    -0.00064    0.00182   -0.00359
 99 V    -0.00089   -0.00043    0.00085
100 O     0.00215    0.00076    0.00313
101 O    -0.00076    0.00010    0.00009
102 O    -0.00065   -0.00010   -0.00168
103 H    -0.00180    0.00090    0.00048
104 H    -0.00307   -0.00522   -0.00586